500
Final configuration Lattice="17.60000000 0 0  0 17.60000000 0  0 0 17.60000000" Properties=species:S:1:pos:R:3
Ni 17.53596266 0.15625818 0.49371801
Ni 0.00897278 1.59589634 2.14406982
Ni 1.97144179 17.51143795 1.97491081
Ni 1.65329273 1.86989166 0.16167653
Ni 17.38946717 17.37733272 3.55498308
Ni 0.16840227 1.96618350 5.04017799
Ni 1.48439663 0.24821107 5.09832701
Ni 2.08604405 1.50465043 3.50602693
Ni 0.19542987 17.51960750 6.78005423
Ni 17.59410263 1.79554275 8.84264914
Ni 1.49860236 17.46504859 8.45270916
Ni 1.48533033 2.01256974 7.07627867
Ni 0.06386732 17.58681383 10.60247513
Ni 0.33469996 1.80985910 12.54962743
Ni 1.73901903 0.30597596 12.35198469
Ni 1.44547568 1.86804970 10.54525075
Ni 17.48506795 0.28074086 14.33127153
Ni 17.37321558 1.72341998 16.02721132
Ni 1.79799585 0.70658919 15.94489869
Ni 1.55147844 2.01772679 14.15265358
Ni 17.45920343 3.76200316 17.53257852
Ni 17.37447631 5.18264496 1.93102624
Ni 1.41828060 3.58309694 1.72496120
Ni 1.73683580 5.21167499 0.28734971
Ni 0.00589737 3.49908181 3.45653675
Ni 0.07677512 5.24452323 5.29734589
Ni 1.62126297 3.57681923 5.00360332
Ni 1.39130294 5.26529090 3.29832791
Ni 0.02984935 3.75196676 7.18871498
Ni 0.05552578 5.38267787 9.13867351
Ni 1.87844433 3.63938680 8.72059058
Ni 1.86942195 5.32491476 7.30736748
Ni 17.53290650 3.56245180 10.93236447
Ni 17.27004857 5.09969872 12.45091662
Ni 2.02857728 3.62475485 12.44120806
Ni 1.77827322 5.04696733 10.44273631
Ni 17.55773292 3.71605662 14.33708054
Ni 0.36846046 5.32291059 15.99674774
Ni 1.90468904 3.51738673 15.99925948
Ni 1.51714559 5.49077424 13.94450033
Ni 0.41759527 6.88814072 0.26431929
Ni 17.24392741 9.01361183 1.65671249
Ni 1.72497768 7.19542532 2.00488806
Ni 1.81061197 8.65218742 0.13761723
Ni 17.32823335 7.07986088 3.63306439
Ni 17.30186919 9.01813042 4.98010912
Ni 1.12308771 7.26564685 5.23396698
Ni 1.73592574 9.04907377 3.93908614
Ni 17.43466713 7.47872020 6.97662785
Ni 0.05649046 8.59675241 8.90655614
Ni 1.62097801 7.03767859 8.51462445
Ni 1.47381883 8.95814206 6.90845127
Ni 0.34902113 6.81178520 11.02652139
Ni 17.37131683 8.69918742 12.41658154
Ni 1.90034302 7.00480357 12.38284594
Ni 1.57047255 8.74931426 10.61232190
Ni 17.48180554 6.92999242 13.97868747
Ni 0.06081520 8.76044617 15.50582126
Ni 1.65902157 7.25110146 15.94735767
Ni 1.91251287 8.76838479 14.03861140
Ni 0.51106873 10.41365395 17.58848485
Ni 0.31064341 12.13343891 1.85710032
Ni 1.92975164 10.66259181 2.09534625
Ni 2.04811258 12.42888108 0.05126271
Ni 0.02893927 11.00404157 3.68106842
Ni 0.23338609 12.43465224 5.83976271
Ni 1.84267926 10.98802653 5.55765038
Ni 1.93599632 12.19576736 3.78991252
Ni 17.41518544 10.67555141 7.09553644
Ni 0.04554844 12.66156307 9.02541795
Ni 1.74942093 10.41263097 8.69003523
Ni 1.99398086 12.34865186 7.44551575
Ni 17.49394574 10.53488053 10.80492804
Ni 17.35871159 12.49851040 12.00523309
Ni 1.51430734 10.49838816 12.49225167
Ni 2.24470910 12.42867772 10.54992060
Ni 0.05948173 10.87315910 14.09534618
Ni 0.13637052 12.27365018 16.15692014
Ni 1.97618739 10.58974579 15.61619989
Ni 1.59843735 12.60402369 13.36134329
Ni 0.26843018 14.02134566 0.09969791
Ni 0.25643339 15.50227574 2.06687914
Ni 1.84311523 14.00969380 2.07447018
Ni 1.91002677 15.89541594 0.39908382
Ni 17.58704682 13.53086981 3.74266806
Ni 0.05410415 15.58091559 5.00026087
Ni 1.90095776 14.00901279 5.47950883
Ni 2.04234728 15.65939388 3.78012411
Ni 0.31028159 14.14562996 7.36804603
Ni 17.58458647 15.68601594 8.88777712
Ni 1.89500593 14.28182149 8.92665212
Ni 1.90607036 15.58579449 7.02189331
Ni 0.04275401 14.46360675 10.77072421
Ni 0.29903201 16.03987413 12.43419765
Ni 1.80921583 14.23177793 12.10108760
Ni 1.62667731 16.06767183 10.56190641
Ni 0.03093568 14.27348178 13.93441131
Ni 0.42767268 15.74092692 16.10199335
Ni 1.86089093 13.85862753 15.90859909
Ni 1.86867444 15.56970508 14.37227102
Ni 3.26092611 0.35620443 0.08721606
Ni 3.50887137 2.01976258 1.80561750
Ni 4.86602729 0.10878133 1.92472477
Ni 5.22104691 1.63884862 0.21632279
Ni 3.67661219 17.40468191 3.93591008
Ni 3.31999075 1.88413976 5.24768679
Ni 5.19757246 17.51315849 5.43813367
Ni 4.97494179 1.61938892 3.79152705
Ni 3.41360424 0.12602493 6.85972450
Ni 3.37913694 1.73044886 8.73123315
Ni 5.03286388 0.05181853 8.39288145
Ni 5.41593679 1.75738424 6.73384603
Ni 3.25863769 0.18989726 10.41472374
Ni 3.57206901 1.66020031 12.20582218
Ni 5.16028484 0.01318617 12.04896893
Ni 5.17493870 1.54760175 10.24452924
Ni 3.18985536 17.49718228 14.21917830
Ni 3.77078663 1.82950028 15.66627084
Ni 5.67026785 17.48981733 15.84571668
Ni 5.47291669 1.91678161 13.95363600
Ni 3.66538270 3.45214904 0.07395602
Ni 3.44506542 5.26819837 1.67787963
Ni 5.31697630 3.45648120 1.65463386
Ni 5.04605846 5.29396313 0.04939289
Ni 3.28650661 3.53220543 3.53910822
Ni 2.89805142 5.47494861 5.04862624
Ni 4.95860002 3.62440440 5.20621413
Ni 4.93758740 5.17357449 3.71711497
Ni 3.47046486 3.38556598 7.14722819
Ni 3.49058133 5.53496253 8.91546826
Ni 5.21424179 3.72428448 8.85929576
Ni 4.79500504 5.23018216 6.67237793
Ni 3.60290601 3.27678378 10.27723026
Ni 3.57642970 5.20963537 12.18593877
Ni 5.15556879 3.18915622 12.19491582
Ni 5.03557012 5.15656302 10.41973807
Ni 3.38062565 3.87251246 14.10469473
Ni 3.52659377 5.52943531 16.14372516
Ni 5.15565466 3.76571659 15.74391923
Ni 5.20454736 5.12153195 13.86697629
Ni 3.66869079 7.31818891 0.01151515
Ni 3.66713202 8.86238514 1.87971361
Ni 5.04647462 6.94103780 1.81429110
Ni 5.32237687 8.71496135 17.43223394
Ni 3.70973294 7.45084780 3.68290416
Ni 4.01699761 8.62442762 5.65973778
Ni 5.63031823 6.82680369 5.35241121
Ni 5.38336272 9.02883561 3.91701125
Ni 3.48387773 6.90106052 7.02617394
Ni 3.54352280 8.91366660 8.69128803
Ni 5.47278588 7.09260635 8.64816430
Ni 5.47518975 8.98589512 7.07414230
Ni 3.81484001 7.11022830 10.45804438
Ni 3.34620379 8.81573517 12.31921026
Ni 5.42994334 7.14053426 12.50830175
Ni 4.96703660 8.97817610 10.52081746
Ni 3.81152143 6.88666530 13.96249590
Ni 3.63389493 8.99493823 15.61353261
Ni 5.40458951 6.94776609 15.75412824
Ni 5.13398985 9.04558594 13.68826847
Ni 3.58400727 10.41087987 0.40523433
Ni 3.53786427 12.36815029 1.67718999
Ni 5.41032529 10.54931022 1.69836286
Ni 5.36383551 12.61669547 17.48969258
Ni 3.51471631 10.76064731 3.71566030
Ni 3.48043719 12.51874828 5.50847942
Ni 5.17137723 10.69271697 5.18940901
Ni 5.21474145 12.32958256 3.49008301
Ni 3.73927603 10.70418451 7.03208877
Ni 3.69656803 12.53325734 9.03034946
Ni 5.14088532 10.78674135 9.08036987
Ni 5.19026706 12.36220714 7.13520293
Ni 3.40498224 10.75584008 10.77977535
Ni 3.76448558 12.49278559 12.40566636
Ni 5.18219068 10.59639013 12.25258558
Ni 5.33691652 12.46423964 10.84100510
Ni 3.48899232 10.61236829 13.93566880
Ni 3.76799494 12.47528376 15.49778707
Ni 5.11924758 10.46333877 15.69789354
Ni 5.39701640 12.77822620 13.57041788
Ni 3.88420124 14.31525593 17.44267094
Ni 3.60943313 15.64794915 2.07357964
Ni 5.07771219 14.03995994 2.00328905
Ni 5.52216112 16.07577331 0.28153593
Ni 3.46360377 13.91614426 3.84301838
Ni 3.49789298 15.73140289 5.26479082
Ni 5.37480590 14.05522019 5.35719438
Ni 5.26437530 15.83386545 3.55984845
Ni 3.62858623 14.13656103 7.05555901
Ni 3.28748434 16.04606814 9.07559598
Ni 4.95585186 14.55989684 9.05544728
Ni 5.28800319 15.63269780 7.22788503
Ni 3.46681969 14.45759901 10.76348756
Ni 3.27214070 16.27262791 12.14914236
Ni 5.11864382 14.51524746 12.11893760
Ni 5.40466605 16.15275318 10.47031305
Ni 3.58424758 14.08581273 13.97894874
Ni 3.69993707 16.20582012 15.97638811
Ni 5.63811348 13.91887573 15.62957277
Ni 5.51324300 16.24135258 13.63877025
Ni 7.14053884 0.17031674 17.55478906
Ni 7.04635739 1.84890753 1.58710089
Ni 8.73668627 17.57299626 1.65184794
Ni 8.70659966 2.06768653 17.56515309
Ni 6.99411749 0.08965977 3.20406601
Ni 7.01799120 1.81697844 4.67321668
Ni 8.47853650 17.45328685 5.14815255
Ni 8.74031620 1.87473245 3.51665250
Ni 6.70091184 17.47975269 7.07406059
Ni 7.04594834 1.55686797 8.58846612
Ni 8.87871781 17.32832849 8.67164985
Ni 8.18570905 1.82892405 6.59528878
Ni 7.08902985 17.55131155 10.28212154
Ni 7.18199311 1.36887961 11.90823402
Ni 9.04219310 17.47216180 12.14810795
Ni 9.07187636 1.75196728 10.24701918
Ni 7.26384793 17.55298908 13.73761281
Ni 7.00473986 1.76555667 15.71743602
Ni 8.66842861 17.52856468 15.77477211
Ni 8.75654991 1.69780475 14.01110122
Ni 6.56558796 3.68528342 17.36091927
Ni 7.09384875 5.00590619 1.87624268
Ni 8.85415044 3.67830287 1.80800608
Ni 8.71517106 5.08138159 0.01520255
Ni 6.54290167 3.62386371 3.60582490
Ni 7.12027659 5.05111464 5.39561385
Ni 8.48427224 3.45066502 5.18075951
Ni 8.81883512 5.76092518 3.42241220
Ni 6.62265654 3.54610950 6.78581335
Ni 6.53340231 5.26637511 8.37146871
Ni 8.70834679 3.18339226 8.48974242
Ni 8.75126215 5.20356419 7.44846406
Ni 7.32929883 3.45301034 10.57182775
Ni 7.19304458 5.21020352 12.13575000
Ni 8.85257248 3.27682818 12.26502469
Ni 8.46920474 5.21631919 10.03514093
Ni 7.16303840 3.24927435 13.65982786
Ni 6.82796011 5.19548170 15.45720631
Ni 8.51901016 3.68229435 15.90368951
Ni 8.98127474 4.95638854 14.03856209
Ni 7.18908032 6.83604297 17.31085865
Ni 6.88050072 8.57650816 1.67769224
Ni 8.54167424 6.96598218 1.53187010
Ni 8.43623176 9.22547480 0.05371838
Ni 6.62870044 6.81814654 3.30234046
Ni 7.09695421 8.92071605 5.61902144
Ni 8.60369541 7.20249441 5.19352686
Ni 8.19906303 8.66668561 3.59931822
Ni 7.26608423 6.96838116 7.00990407
Ni 7.23189967 9.13406693 8.72411938
Ni 8.78570278 7.06114886 8.89025819
Ni 9.01968668 9.19439837 7.07682906
Ni 6.64397981 6.90432721 10.65634760
Ni 6.71543594 8.66390527 11.91261440
Ni 8.79579057 6.86156713 12.17998540
Ni 8.90814652 8.87453703 10.38009838
Ni 7.10378488 7.03760850 13.83088143
Ni 7.08223073 9.18091435 15.59328763
Ni 8.98104377 7.14258566 15.87913751
Ni 8.64722801 8.72114420 13.92474107
Ni 6.93961876 10.69963783 0.16728161
Ni 6.97163801 12.55132101 1.48949502
Ni 8.93559486 10.57929155 1.84702244
Ni 8.74299297 12.32479635 17.34208289
Ni 7.22862403 10.64187712 3.81484698
Ni 6.82765212 12.34655999 5.62903789
Ni 8.89504855 10.77591493 5.49892632
Ni 8.71614978 12.42670611 3.36802103
Ni 6.89210550 10.57002288 7.09117368
Ni 7.22982012 12.21563951 8.74958007
Ni 9.06271329 10.75844884 8.87995245
Ni 8.98227123 12.42852484 7.31684061
Ni 6.81963740 10.70563579 10.50435309
Ni 7.34721323 12.48498145 12.45179442
Ni 9.25251409 10.57037040 12.65697689
Ni 8.78583354 12.37365319 10.72841029
Ni 7.42906316 10.45663992 13.64992640
Ni 7.27345398 12.18678813 15.51778819
Ni 8.98058206 10.35514952 15.64883830
Ni 8.98305050 12.48465816 14.12400910
Ni 7.05950851 14.29784631 17.47611755
Ni 7.07845987 15.59592953 1.75314477
Ni 8.80201511 14.07297137 1.56162279
Ni 8.80560827 15.82369107 17.36315437
Ni 6.94830700 14.05060823 3.56839302
Ni 6.98503053 15.90245455 5.23880257
Ni 8.50956210 13.77964726 5.25345625
Ni 8.52799216 15.52619065 3.53520627
Ni 6.94638630 14.01882255 7.06939481
Ni 7.04837331 15.83235665 8.57389595
Ni 8.54991459 14.18769344 8.85004308
Ni 8.61739747 15.49630656 6.53623217
Ni 6.97071886 14.06886411 10.66209091
Ni 7.02873074 15.92815904 12.04713992
Ni 8.88850923 14.20068829 12.24532595
Ni 8.92421472 15.66440516 10.53939514
Ni 6.92036528 14.47180648 13.91055210
Ni 6.99099792 15.88479776 15.81608288
Ni 8.43520899 14.12070506 15.53756798
Ni 8.70289753 15.85648998 13.68382984
Ni 10.00706831 0.13730252 17.41537020
Ni 10.41609162 1.72595161 1.82380687
Ni 12.21662192 0.13058383 1.77091024
Ni 11.84262981 1.54774609 17.33775670
Ni 10.34297923 17.56255482 3.18672420
Ni 10.01384171 1.70407679 5.52451196
Ni 11.81673176 17.57992670 5.28474697
Ni 12.17751635 1.93271053 3.88785443
Ni 10.52057000 17.45130568 7.22076949
Ni 10.62432193 1.62854571 8.72692283
Ni 12.17607659 17.58265633 8.94363545
Ni 12.46166612 1.67415785 6.73739137
Ni 10.37348770 17.24693582 10.55004034
Ni 10.51793309 1.62957730 12.17946380
Ni 12.32826949 17.45444947 12.24156660
Ni 12.45632112 1.64285263 10.66132990
Ni 10.81246532 17.47470410 14.41341975
Ni 10.11334805 1.83718718 15.63923186
Ni 12.48248719 17.44125660 16.09826579
Ni 12.73530578 1.29456577 14.34673677
Ni 10.63620895 3.43486908 0.26281068
Ni 10.28706649 5.19715503 1.73685360
Ni 12.35223153 3.63577533 1.72418141
Ni 12.42277474 4.67914441 17.40057878
Ni 10.45796058 3.46273014 3.89483343
Ni 10.47639723 5.33282479 5.46298277
Ni 12.27179476 3.59865391 5.30993803
Ni 12.10560954 5.55010810 3.10259133
Ni 10.33701870 3.25722174 6.99824636
Ni 10.76902728 5.07229384 8.70030413
Ni 12.41487205 3.26533950 8.74515254
Ni 12.47862011 5.09240657 7.10735481
Ni 10.55516293 3.47499738 10.18063245
Ni 10.35937628 5.21414664 12.10263580
Ni 12.17901563 3.07349257 12.25591108
Ni 12.45488059 5.18971192 10.82593253
Ni 10.47416665 3.40635699 14.02093333
Ni 10.51216092 5.15621920 15.95300858
Ni 12.32871631 3.11886470 15.79443469
Ni 12.15480441 4.85574116 14.03453637
Ni 10.57408005 6.69671173 0.03636536
Ni 10.35948347 8.19813003 2.10283110
Ni 12.72024360 6.83788934 1.50085677
Ni 12.65683653 8.72551318 17.35535617
Ni 10.63541471 7.20875699 4.23726173
Ni 10.79310206 9.01840211 5.43161269
Ni 12.47712960 7.09753294 5.50895958
Ni 12.48892166 8.82683570 3.93759087
Ni 10.25451861 7.19487516 7.02867106
Ni 10.54520822 8.58465937 8.83540833
Ni 12.16040822 6.90336829 8.91184659
Ni 12.51818796 8.66253389 7.01186543
Ni 10.50524523 6.92199167 10.58647900
Ni 10.49612989 8.62152295 12.57732484
Ni 11.94271968 6.99588251 12.65682868
Ni 12.25595481 8.75758803 10.38428594
Ni 10.28683069 6.66969716 14.12467568
Ni 10.49291924 8.52720075 16.44101515
Ni 12.20733092 6.86064709 15.98069972
Ni 12.49256858 8.69656340 14.36481955
Ni 10.67924110 10.06002238 0.30273349
Ni 10.46559588 12.26561712 1.41707449
Ni 12.53849565 10.15379279 1.83316667
Ni 12.91437069 11.65054219 0.18003226
Ni 10.14245516 10.11943109 3.63056252
Ni 10.75070449 11.96014568 5.21341115
Ni 12.78051178 10.29742142 5.41083597
Ni 12.17154495 11.96208911 3.32107230
Ni 11.16096626 10.28303098 7.32981203
Ni 10.51835039 12.42898980 9.03564020
Ni 12.83455334 10.78333767 9.03441363
Ni 11.98920871 12.50984774 7.29325999
Ni 10.78558510 10.61427096 10.78439194
Ni 10.77478594 12.36763049 12.71322530
Ni 12.36729036 10.62539700 12.54360874
Ni 12.16080243 12.16106542 10.87971261
Ni 10.79004026 10.04365870 14.26555509
Ni 10.75180510 12.24559803 15.93445114
Ni 12.49862605 10.77451147 15.67996976
Ni 12.55826761 12.45746546 13.80530591
Ni 10.60525447 14.04101063 17.27744677
Ni 10.62941654 15.94625031 1.35735155
Ni 12.26967591 13.80445123 1.43075028
Ni 12.50646882 15.58267207 17.42622834
Ni 10.66519772 13.86652208 3.52757377
Ni 10.32302226 15.71173831 5.05715084
Ni 12.30211263 13.85740671 5.50315497
Ni 11.97186210 15.59397732 3.29041980
Ni 10.43618169 13.92724660 6.65897843
Ni 10.86951104 15.91330913 8.55900533
Ni 12.14576603 14.31173356 8.97816112
Ni 12.19542960 15.91621548 6.73851117
Ni 10.69473653 14.06510922 11.19202086
Ni 10.50227212 15.89222983 12.14922706
Ni 12.21806823 14.71506035 12.71033786
Ni 12.44409744 15.69378620 10.70636129
Ni 10.68507150 14.06037888 14.40730851
Ni 10.63314409 15.96635485 15.89267274
Ni 12.32184574 13.74800938 15.75198355
Ni 12.65541838 15.97129302 14.44087574
Ni 14.24684979 17.40908705 0.20726547
Ni 13.91020757 1.68808950 2.33865104
Ni 15.73873964 17.49874706 1.98508234
Ni 15.78542474 1.76444604 0.28040803
Ni 13.55854945 17.28045568 3.46205633
Ni 14.10448700 1.87727301 5.03569171
Ni 15.45694405 17.50568786 4.96633970
Ni 15.87618595 1.78748622 3.51880115
Ni 14.19901442 0.24614672 6.98972943
Ni 14.05670397 1.50640307 8.57874586
Ni 16.00300954 0.23245247 8.46363554
Ni 15.88637545 1.72243268 6.67856205
Ni 13.90487015 17.57983708 10.60897606
Ni 14.23020047 1.68616384 12.17496472
Ni 15.93448264 0.35054052 12.03973592
Ni 15.95857965 1.83092439 10.22153275
Ni 14.73762898 0.03048561 14.18604948
Ni 14.39695911 2.01223377 15.67403006
Ni 15.92664516 17.32335545 16.21916039
Ni 16.04207235 2.24467823 14.13271942
Ni 14.00593920 3.06378241 0.10941717
Ni 14.24159217 5.03738566 1.36245372
Ni 15.73972612 3.51618788 1.85959124
Ni 16.03624843 5.35615005 0.04102489
Ni 13.95656149 3.69179550 3.41067768
Ni 14.12211564 5.30039904 5.73651669
Ni 15.45917952 3.72995636 5.47910214
Ni 15.67017913 5.31539674 3.54206936
Ni 14.16938587 3.06322932 7.06857511
Ni 13.89434319 5.26276957 8.97333059
Ni 15.71704467 3.78974968 8.92641165
Ni 16.15535430 5.37934018 7.22898854
Ni 13.95305556 3.28905016 10.86359524
Ni 13.75586006 5.72264794 12.48951993
Ni 15.83425044 3.26825280 12.24976806
Ni 15.31822438 5.23454226 10.72742804
Ni 13.81375305 3.41654060 13.65404784
Ni 14.13890964 4.95931976 16.06685460
Ni 15.83007365 3.63895150 16.01919020
Ni 15.61579086 5.03778206 13.98317503
Ni 14.23419178 6.91443242 17.49307799
Ni 14.21128726 8.60513515 1.59562695
Ni 15.98921036 7.22608656 1.64802009
Ni 16.13545813 9.27095193 17.09350916
Ni 14.09227176 7.20902869 3.40587600
Ni 14.50041792 8.65620394 5.28909988
Ni 15.83117094 6.72014645 5.33065151
Ni 15.78753827 8.93117363 3.17056953
Ni 14.33624051 7.33640315 7.19666168
Ni 14.18433439 8.90032312 8.86328905
Ni 16.03710424 6.84358524 9.03782521
Ni 15.89417432 8.89772514 7.37951938
Ni 13.95952533 7.20694028 10.17786695
Ni 13.62843178 8.62705816 12.10536855
Ni 15.47453602 7.04475789 12.00525957
Ni 16.12897940 8.87979325 10.48638539
Ni 13.78666901 6.62534325 14.43227064
Ni 14.10186761 8.60579215 15.78215669
Ni 16.10891128 6.62191791 15.77832114
Ni 15.49083997 8.72555345 13.91630038
Ni 14.58965499 10.61677327 17.06023606
Ni 14.08516387 12.42777430 1.76011505
Ni 15.90969160 10.79445114 2.03910842
Ni 16.25041509 12.28188692 0.40968610
Ni 14.23594540 10.51171652 3.49678532
Ni 13.85380226 12.36797206 5.67845051
Ni 15.74178972 10.96030407 5.06352323
Ni 15.34650437 12.50753047 3.65291756
Ni 14.29890970 10.57632646 7.25136634
Ni 14.13359404 12.86856224 8.81797017
Ni 15.92491251 10.63268173 8.84942398
Ni 15.58761998 12.41061197 7.05619742
Ni 14.32164920 10.41988859 10.70398305
Ni 13.99802227 12.49278927 12.09427410
Ni 15.76507311 10.38690043 12.37182231
Ni 15.58199092 12.38695920 10.43009694
Ni 14.25614724 10.58339968 14.26037437
Ni 14.16466321 12.40667826 15.68836708
Ni 16.09579664 10.76519149 15.42746853
Ni 16.17300699 12.61579083 14.18546606
Ni 14.32729076 13.86186081 0.12756964
Ni 14.08503209 15.57606501 1.63298977
Ni 16.06870590 14.04873006 2.22774321
Ni 16.55311347 15.66041614 0.31032387
Ni 13.65512623 13.98872869 3.68565393
Ni 13.89370757 16.22740489 5.53632434
Ni 16.10994767 13.98250845 5.55309561
Ni 15.29367864 15.70190934 3.69573587
Ni 13.92638035 14.30749717 7.15441014
Ni 14.50978505 15.99396978 8.56045792
Ni 16.03485622 13.99322037 8.71793449
Ni 16.22090725 16.03147148 6.90538613
Ni 13.97550913 14.11213002 10.73190462
Ni 14.36165660 16.27054304 12.28616578
Ni 15.88679760 14.00151442 12.23452357
Ni 15.79113552 15.76686922 10.22042966
Ni 14.17639021 14.47656821 14.07944902
Ni 14.52395012 15.55091858 16.08907942
Ni 16.03787896 13.91671918 16.09412718
Ni 16.21813700 15.82285581 14.64742911
