500
Final configuration Lattice="19.45000000 0 0  0 19.45000000 0  0 0 19.45000000" Properties=species:S:1:pos:R:3
Pd 19.43039359 19.43139004 19.42100376
Pd 19.43695598 2.00099430 1.82731532
Pd 1.92387944 0.02456609 1.92013579
Pd 1.98572909 1.89061139 19.40090972
Pd 19.39224108 0.05258713 3.87417360
Pd 19.41101520 1.97047076 5.81973179
Pd 2.02560121 0.06191005 5.78269476
Pd 1.92600942 1.88018038 3.73051993
Pd 19.41155043 0.01726889 7.81157290
Pd 0.06210182 1.95031436 9.66754810
Pd 1.89158618 0.03645486 9.77896072
Pd 1.92999720 1.89085623 7.78151763
Pd 0.04465547 0.04845398 11.75618204
Pd 0.05558951 1.96470418 13.69545795
Pd 2.05844367 0.03309491 13.64894212
Pd 1.91878748 2.04431698 11.61927968
Pd 0.07564242 19.38811087 15.64533786
Pd 0.02780392 2.04846890 17.48238359
Pd 1.99469725 0.06662938 17.49639278
Pd 1.99964471 1.99286600 15.54871829
Pd 0.02246303 3.94421409 0.01886371
Pd 0.09319969 5.85587844 1.95803698
Pd 2.03399621 3.87719022 1.88234037
Pd 1.98371029 5.89987742 19.37616784
Pd 0.03290920 3.85735818 3.80741717
Pd 0.02100053 5.90931711 5.81917812
Pd 1.98313474 3.84062911 5.76768488
Pd 1.93070278 5.84328489 3.90575364
Pd 0.01634862 3.92993603 7.72418593
Pd 0.08204450 5.85284778 9.67059635
Pd 1.96717039 3.95117958 9.65681378
Pd 1.97792852 5.94697951 7.65688671
Pd 0.01403600 3.94444942 11.74014243
Pd 0.05913005 5.88379905 13.68217070
Pd 1.96107994 3.97404660 13.67048489
Pd 1.95712027 5.80265228 11.67032572
Pd 0.04068803 3.95287356 15.67214262
Pd 19.44613512 5.88217144 17.48729734
Pd 1.99938013 3.88569798 17.50486286
Pd 2.05367747 5.80961706 15.62996966
Pd 0.03077020 7.75623503 19.43768080
Pd 19.36970948 9.61164526 1.96920423
Pd 1.98288263 7.87608012 1.86696074
Pd 1.97419531 9.76702009 19.37559257
Pd 19.34160936 7.74063081 3.86360936
Pd 0.00144255 9.79294772 5.88756666
Pd 1.84506643 7.89513178 5.80507068
Pd 1.85208157 9.81461681 3.92401518
Pd 0.05998527 7.83029437 7.84119221
Pd 19.41803289 9.68715512 9.73350978
Pd 2.02784555 7.76566370 9.73470225
Pd 1.87537155 9.77033296 7.83654729
Pd 0.11312181 7.79863709 11.66151808
Pd 19.43165166 9.69311813 13.67393602
Pd 2.03570659 7.72949361 13.71374253
Pd 1.88739485 9.72545879 11.61785515
Pd 0.04131684 7.83072901 15.60840801
Pd 0.03720489 9.72140256 17.55213030
Pd 2.00012109 7.79565142 17.51942404
Pd 1.94441619 9.70111918 15.52519152
Pd 19.40624607 11.63318353 0.05007473
Pd 0.03798223 13.58249879 1.98703805
Pd 2.01157466 11.66891311 1.88597085
Pd 1.89781196 13.52948514 0.07669787
Pd 19.38459079 11.73069854 3.93293629
Pd 0.11640539 13.59363335 5.82567138
Pd 1.93121230 11.66349204 5.78216943
Pd 2.00873313 13.65832565 3.86214269
Pd 19.42655347 11.65087582 7.90834561
Pd 19.44855745 13.64503634 9.71598258
Pd 1.86178757 11.64242452 9.78096755
Pd 1.95295495 13.62631451 7.79228924
Pd 0.06601556 11.65695693 11.74578342
Pd 0.04024259 13.64284872 13.57529099
Pd 2.01469184 11.68265088 13.60621966
Pd 1.94602619 13.61687514 11.67443952
Pd 0.06500622 11.62288251 15.57795164
Pd 19.42987543 13.60735225 17.43933731
Pd 1.96666607 11.71713720 17.50289032
Pd 1.91151953 13.60040366 15.54225894
Pd 0.02098976 15.54144649 0.03249752
Pd 19.34099983 17.52147080 1.97243905
Pd 1.97116446 15.56498544 1.92438991
Pd 2.02007113 17.50495555 0.09032580
Pd 0.08728688 15.62607955 3.85901495
Pd 0.05141613 17.52899461 5.81326752
Pd 1.98205491 15.52214404 5.82998047
Pd 1.94686656 17.50932705 3.88000560
Pd 0.00321231 15.49645703 7.77930529
Pd 0.03719426 17.52274649 9.72093778
Pd 2.01451375 15.60004535 9.77498178
Pd 1.90514479 17.50352267 7.76767194
Pd 19.44236078 15.63086711 11.63375940
Pd 0.02219560 17.56509768 13.62521786
Pd 2.09204396 15.61804640 13.55563323
Pd 1.94606997 17.51441970 11.69379157
Pd 19.41987864 15.54650973 15.46305778
Pd 0.04413487 17.41359026 17.44708695
Pd 1.93637116 15.54921290 17.49920516
Pd 1.98497734 17.48563291 15.60296879
Pd 3.93135590 19.32796699 19.40771418
Pd 3.97021878 1.89169586 1.96328591
Pd 5.79076175 19.40995001 2.01577709
Pd 5.82185643 1.92349990 0.03814627
Pd 3.86398586 19.42168644 3.91930865
Pd 3.95388474 1.95719955 5.80526892
Pd 5.80118582 0.04195525 5.82464475
Pd 5.91035649 1.96149600 3.89948590
Pd 3.91999657 0.00770008 7.75195442
Pd 3.85272568 1.99580664 9.64015861
Pd 5.84220848 0.08939661 9.66876589
Pd 5.89919680 1.90323514 7.79085445
Pd 3.97777537 19.43612002 11.60708305
Pd 3.90346650 2.03598223 13.52640554
Pd 5.90460126 0.08477016 13.64033204
Pd 5.89924809 1.95936472 11.61898741
Pd 3.96603382 0.02927270 15.53619427
Pd 3.88702456 1.97742357 17.50429206
Pd 5.89071608 19.43189062 17.51216594
Pd 5.91212573 1.99353167 15.63568851
Pd 3.90620853 3.81954204 19.42718611
Pd 3.85245209 5.86860377 1.97263031
Pd 5.78647402 3.81848291 1.89837661
Pd 5.73858808 5.88049427 0.05212666
Pd 3.91435996 3.87161873 3.88781706
Pd 3.85866755 5.85789649 5.75131487
Pd 5.87315248 3.83055697 5.84462271
Pd 5.89204542 5.78360950 3.81110218
Pd 3.87024050 3.90149329 7.73213710
Pd 3.87874553 5.75984838 9.72427610
Pd 5.82251321 3.86491263 9.55725928
Pd 5.84662330 5.84311918 7.73103802
Pd 3.95801317 3.91901378 11.58795124
Pd 4.03598015 5.84149011 13.59066924
Pd 5.90381209 4.00122158 13.53980546
Pd 5.92803239 5.80959323 11.61015272
Pd 4.00347159 3.85379337 15.56716099
Pd 3.90585488 5.79362934 17.49766178
Pd 5.79184625 3.86177093 17.57423368
Pd 5.85602616 5.87210810 15.64811414
Pd 3.89147643 7.83466189 0.00096022
Pd 3.92858221 9.71471350 1.87204921
Pd 5.85678521 7.77476032 2.02080317
Pd 5.91385081 9.70197856 0.02807608
Pd 3.80650596 7.85455177 3.87856676
Pd 3.81820388 9.77171575 5.77208288
Pd 5.83315332 7.79776843 5.78178314
Pd 5.76705995 9.75834930 3.82844547
Pd 3.98935126 7.79428097 7.67641975
Pd 4.00344473 9.75868265 9.66323053
Pd 5.81278906 7.82752159 9.67510369
Pd 5.81590392 9.76728040 7.65737428
Pd 3.96696771 7.82654659 11.69082531
Pd 3.82945492 9.69196811 13.59490420
Pd 5.78358783 7.87988730 13.59971357
Pd 5.83848771 9.71287174 11.60355591
Pd 3.94637034 7.80574526 15.61510467
Pd 3.90541644 9.72388187 17.48884692
Pd 5.81176866 7.82593790 17.57895250
Pd 5.82955877 9.72402799 15.55739695
Pd 3.94725538 11.64899124 19.36092866
Pd 3.95446629 13.49533094 1.92584830
Pd 5.82183693 11.60342915 1.92297501
Pd 5.82136761 13.59651967 19.41777858
Pd 3.88902489 11.71414681 3.95193165
Pd 3.92297335 13.62465110 5.87216538
Pd 5.81433401 11.81730043 5.94030346
Pd 5.80824247 13.57698599 3.86631044
Pd 3.80828005 11.63805984 7.85945133
Pd 3.78368572 13.54071567 9.80317077
Pd 5.88806709 11.70635196 9.67025814
Pd 5.74547334 13.66223861 7.83335752
Pd 3.80472491 11.62922504 11.59949470
Pd 3.98547407 13.61123185 13.70152727
Pd 5.86063206 11.57417194 13.55987610
Pd 5.83989174 13.60115969 11.64374232
Pd 3.88102811 11.76327372 15.56579132
Pd 3.92173756 13.58613035 17.53044783
Pd 5.87895781 11.62811619 17.45017277
Pd 5.90940628 13.54603353 15.54617680
Pd 3.91239169 15.52733931 0.02818070
Pd 3.89167540 17.53066767 2.02449918
Pd 5.79435291 15.43679373 1.94303521
Pd 5.88257291 17.41511603 0.02905340
Pd 3.94596932 15.49504471 3.82290681
Pd 3.86766076 17.54547544 5.86257887
Pd 5.88518126 15.66563615 5.88259381
Pd 5.81957956 17.56801521 3.92191514
Pd 3.86852919 15.54500804 7.77343845
Pd 3.85371263 17.52337396 9.66652129
Pd 5.80385538 15.63509194 9.75076945
Pd 5.81766858 17.53888781 7.78361371
Pd 3.94230505 15.54071087 11.72358396
Pd 3.97749829 17.59531269 13.69802275
Pd 5.82315526 15.60725212 13.60194977
Pd 5.77957272 17.52420765 11.62873274
Pd 3.90443751 15.53874704 15.51138143
Pd 3.86773751 17.42632296 17.38591824
Pd 5.89737514 15.46318326 17.47923192
Pd 5.87877682 17.47726593 15.64342573
Pd 7.76688713 19.43458397 19.43855044
Pd 7.85486746 1.91635505 1.88701396
Pd 9.74747142 19.36586296 1.89510681
Pd 9.72841299 1.95185521 19.40841145
Pd 7.80458599 19.43831405 3.80474184
Pd 7.80188194 1.94670412 5.83805807
Pd 9.77936737 0.00843162 5.85184687
Pd 9.74389545 1.95239607 3.90727367
Pd 7.79199485 0.04314338 7.72326671
Pd 7.78490968 1.96073143 9.68925255
Pd 9.71909818 19.40800980 9.71894609
Pd 9.74764707 1.92065022 7.82970175
Pd 7.77765364 19.43123375 11.59435001
Pd 7.70200362 1.98584688 13.68869068
Pd 9.70976142 19.36254388 13.55535102
Pd 9.65650039 1.92460450 11.67366174
Pd 7.81847598 19.44070804 15.57330136
Pd 7.89409326 2.02134026 17.49360251
Pd 9.70836584 19.33432632 17.48293258
Pd 9.77089189 1.92540675 15.47958549
Pd 7.83138421 3.88013699 0.02344920
Pd 7.86142770 5.85959474 1.96981786
Pd 9.76474667 3.87692912 1.87268405
Pd 9.67987682 5.89642027 19.44491515
Pd 7.84133903 3.92909568 3.87234146
Pd 7.76767613 5.77069795 5.79291646
Pd 9.70382419 3.75592406 5.84257205
Pd 9.78848406 5.76907645 3.83937312
Pd 7.85911946 3.85983335 7.72885519
Pd 7.74425713 5.83546177 9.62943240
Pd 9.72151234 3.84164063 9.70410676
Pd 9.66610176 5.78439169 7.76209568
Pd 7.77348483 3.90432983 11.68796427
Pd 7.82610187 5.95401498 13.63232340
Pd 9.66591080 3.93594106 13.51940274
Pd 9.60157129 5.88774113 11.59484092
Pd 7.77308138 3.91231394 15.57247310
Pd 7.77005479 5.88053495 17.52501052
Pd 9.73510429 3.88185013 17.44021847
Pd 9.73236339 5.79054815 15.59959931
Pd 7.75130219 7.77919305 0.02720515
Pd 7.78842505 9.76309333 2.02455721
Pd 9.77850002 7.79162879 1.98192445
Pd 9.75741087 9.74944373 19.44903978
Pd 7.78064027 7.73785123 3.88628619
Pd 7.73954876 9.72431782 5.78821124
Pd 9.62596755 7.74793696 5.82170495
Pd 9.73269484 9.74235389 3.87376168
Pd 7.74182017 7.80294920 7.81236237
Pd 7.70605931 9.76097239 9.60198724
Pd 9.73733985 7.69956017 9.69740630
Pd 9.71456746 9.69693060 7.86127601
Pd 7.72665337 7.81903820 11.53881071
Pd 7.74922567 9.72436860 13.63521556
Pd 9.73746940 7.81217482 13.60381647
Pd 9.67776409 9.72426667 11.58230817
Pd 7.76090916 7.87448625 15.57093092
Pd 7.73559261 9.69522473 17.52208277
Pd 9.71882314 7.74898391 17.44760301
Pd 9.68985938 9.65539278 15.57197623
Pd 7.79298501 11.66136416 0.03846138
Pd 7.71015652 13.57215003 1.88745249
Pd 9.72500923 11.65156081 2.00737567
Pd 9.73327602 13.66368436 0.00693050
Pd 7.76514114 11.68023997 3.97865008
Pd 7.72372513 13.69966467 5.98989180
Pd 9.67456714 11.66740637 5.88011803
Pd 9.68693458 13.58642447 3.88459912
Pd 7.78603877 11.76520307 7.85196724
Pd 7.72773019 13.69498543 9.77134069
Pd 9.65564153 11.66086735 9.79421241
Pd 9.71170207 13.52302140 7.86154256
Pd 7.68604840 11.63886168 11.60697646
Pd 7.71565689 13.68411279 13.54231407
Pd 9.64725341 11.60883691 13.58227837
Pd 9.73438676 13.61312413 11.68638541
Pd 7.83128717 11.66545058 15.53610972
Pd 7.83604455 13.58356216 17.51827953
Pd 9.78459168 11.62970707 17.42613704
Pd 9.78097589 13.71252820 15.51952009
Pd 7.74498824 15.47454731 19.43007793
Pd 7.76223984 17.48148454 2.04645596
Pd 9.67514506 15.50928570 1.92990543
Pd 9.65488681 17.44604005 0.02169069
Pd 7.77321442 15.56762958 3.91765815
Pd 7.80729410 17.51062198 5.81925385
Pd 9.64437205 15.54263451 5.82985594
Pd 9.74501017 17.49630882 3.81266876
Pd 7.77202532 15.57630074 7.85997807
Pd 7.73989339 17.55929049 9.68375911
Pd 9.80649101 15.48900133 9.80204720
Pd 9.73366466 17.50690885 7.85428310
Pd 7.80024116 15.61297737 11.67601881
Pd 7.71847230 17.54675398 13.51507654
Pd 9.67113808 15.59309179 13.57983268
Pd 9.71663031 17.48129091 11.64433853
Pd 7.70001521 15.61698199 15.61270098
Pd 7.74854751 17.41646174 17.48824742
Pd 9.75759627 15.55228219 17.48865130
Pd 9.63986795 17.57875851 15.51837699
Pd 11.67795289 19.38538020 0.03557540
Pd 11.65586304 1.84051968 1.94493734
Pd 13.60114436 19.43463768 1.97660151
Pd 13.51906470 1.95348578 19.39755482
Pd 11.67824328 19.37066449 3.86566210
Pd 11.65740667 1.94834746 5.82374542
Pd 13.57792452 19.43286566 5.87587590
Pd 13.60067656 1.92861085 3.90283569
Pd 11.69700516 0.00668079 7.82022610
Pd 11.68350297 1.89171451 9.80076193
Pd 13.65643814 19.44331921 9.75002344
Pd 13.67407460 1.99339350 7.81541349
Pd 11.71298747 19.42881554 11.71779542
Pd 11.62588402 1.91261690 13.54506264
Pd 13.67360806 19.36728808 13.62853888
Pd 13.59658081 1.87641403 11.73406205
Pd 11.64786522 19.39128438 15.50468905
Pd 11.58107387 1.86351339 17.49582162
Pd 13.49693109 19.36163340 17.52444010
Pd 13.55538368 1.84906048 15.61315722
Pd 11.63138339 3.84942918 19.40128444
Pd 11.66928489 5.85986147 1.89528172
Pd 13.52794482 3.84320816 1.90188818
Pd 13.59031374 5.78820398 19.42033615
Pd 11.66075195 3.84902645 3.89554109
Pd 11.58902362 5.84902851 5.88534357
Pd 13.53315574 3.93949296 5.85391939
Pd 13.49591926 5.90227376 3.89245527
Pd 11.66306428 3.91128150 7.79941439
Pd 11.59254792 5.84661911 9.74539371
Pd 13.58763980 3.85873177 9.77457759
Pd 13.66111162 5.77252514 7.79988713
Pd 11.64063944 3.89237170 11.69968253
Pd 11.60797354 5.87255217 13.58026893
Pd 13.63848041 3.84326072 13.61309578
Pd 13.64079822 5.83483343 11.71019018
Pd 11.60060631 3.88130115 15.53807762
Pd 11.60615275 5.72638949 17.51592050
Pd 13.52336912 3.73422258 17.41836747
Pd 13.59979185 5.75524612 15.59658464
Pd 11.72419315 7.78646393 19.41888391
Pd 11.65804093 9.75577595 1.98617612
Pd 13.49683140 7.85859821 1.99313653
Pd 13.52921533 9.78292024 0.03155336
Pd 11.58951259 7.74752117 4.00628148
Pd 11.55051275 9.75018836 5.92370200
Pd 13.54207580 7.77463299 5.86266298
Pd 13.51555269 9.81206824 4.02021559
Pd 11.62808928 7.76920766 7.81668607
Pd 11.71641303 9.71804412 9.68777386
Pd 13.59128395 7.70662130 9.73938700
Pd 13.67977893 9.72836230 7.70316205
Pd 11.63380425 7.85178720 11.59486431
Pd 11.62263355 9.71866358 13.62116474
Pd 13.58923785 7.84274106 13.70695621
Pd 13.51517313 9.65850612 11.72041880
Pd 11.72840675 7.74463548 15.67554961
Pd 11.62815775 9.67443702 17.59340776
Pd 13.65285232 7.85567926 17.51385013
Pd 13.53400140 9.72279861 15.57961556
Pd 11.68714856 11.73210229 0.02852847
Pd 11.58155756 13.56192399 2.00317530
Pd 13.58041584 11.71025375 1.99965756
Pd 13.51987148 13.68502113 0.09583610
Pd 11.61791592 11.59177244 3.89634872
Pd 11.56608764 13.55651909 5.77198914
Pd 13.58811447 11.68776122 5.79782255
Pd 13.61675949 13.60483171 3.91003564
Pd 11.62541047 11.69242770 7.78637796
Pd 11.73352241 13.50234005 9.76102049
Pd 13.58413722 11.55121563 9.68767260
Pd 13.53392051 13.60507506 7.75170386
Pd 11.74271200 11.66125237 11.62330032
Pd 11.64796065 13.55395963 13.65433779
Pd 13.56554753 11.65966493 13.59751890
Pd 13.57904053 13.59867360 11.69707789
Pd 11.66712074 11.57833447 15.51453930
Pd 11.66247811 13.59961841 17.40411540
Pd 13.55702514 11.66782348 17.58532720
Pd 13.61469813 13.53629798 15.50389270
Pd 11.71770169 15.54234311 0.03884097
Pd 11.76209804 17.46762083 1.92504629
Pd 13.62323286 15.59687127 1.96923716
Pd 13.70294233 17.43225500 0.06006028
Pd 11.69961940 15.57736657 3.86834886
Pd 11.57558391 17.48206023 5.91427119
Pd 13.52505351 15.54787030 5.80663827
Pd 13.65594566 17.48917352 3.87914339
Pd 11.63544444 15.53938861 7.83985549
Pd 11.63493831 17.40626277 9.79874899
Pd 13.55053506 15.54979446 9.72519614
Pd 13.58537083 17.55775906 7.82807377
Pd 11.71210912 15.52110878 11.74131001
Pd 11.75004729 17.46734305 13.60468092
Pd 13.65126819 15.52429825 13.61965474
Pd 13.60294562 17.46120509 11.63355490
Pd 11.79931104 15.56228353 15.54626489
Pd 11.64279628 17.44196701 17.52165003
Pd 13.62261931 15.57731845 17.60331365
Pd 13.73366586 17.42013246 15.60126371
Pd 15.53667564 0.04517646 19.41686600
Pd 15.52091380 2.08356302 1.82991629
Pd 17.39469376 0.03171182 1.91005795
Pd 17.51706483 2.08728647 19.39525551
Pd 15.47888966 0.02849902 3.94569340
Pd 15.52458290 1.98617633 5.91765146
Pd 17.52242447 0.01801120 5.83795383
Pd 17.45695224 2.05909512 3.81040030
Pd 15.60149104 19.41034568 7.80733933
Pd 15.49408632 2.05864076 9.75224059
Pd 17.53682359 0.10590599 9.80577191
Pd 17.49117462 1.94473319 7.87636615
Pd 15.60060862 0.06027879 11.69354002
Pd 15.58275174 1.91785512 13.65585458
Pd 17.55553817 19.42583895 13.69500139
Pd 17.49855124 2.02025314 11.66682021
Pd 15.61318684 19.44068390 15.56415518
Pd 15.58483113 1.93709462 17.47848023
Pd 17.45403548 19.43825392 17.53059429
Pd 17.56587846 1.98304522 15.53925956
Pd 15.52466174 3.94607999 19.41757126
Pd 15.44415741 5.80263650 1.94553675
Pd 17.47305111 4.05269605 1.82905279
Pd 17.38456718 5.84576349 19.43320196
Pd 15.50499662 3.94029805 3.87760130
Pd 15.51155427 5.91402999 5.77366947
Pd 17.48854985 3.80518268 5.81861634
Pd 17.43657503 5.78108130 3.93075536
Pd 15.55576001 3.87134619 7.81093939
Pd 15.64344500 5.79429452 9.74813453
Pd 17.59241869 3.91557644 9.76380885
Pd 17.48374846 5.90786447 7.67203259
Pd 15.68173192 3.84777862 11.69868921
Pd 15.56713376 5.91891908 13.67548836
Pd 17.57638101 3.92536430 13.68040853
Pd 17.54226421 5.84821777 11.66538682
Pd 15.52624086 3.94037143 15.61704108
Pd 15.44140732 5.92734385 17.47857704
Pd 17.38957109 3.90872732 17.46576081
Pd 17.46967351 5.91482744 15.57299785
Pd 15.48759429 7.77046829 0.07627370
Pd 15.59434286 9.70915378 1.89347971
Pd 17.54237229 7.77312564 1.89798815
Pd 17.50583301 9.83110049 0.04791648
Pd 15.54403872 7.76585122 3.77753669
Pd 15.60555014 9.69221374 5.80621209
Pd 17.52722403 7.82726508 5.85503463
Pd 17.55308647 9.70338512 3.90737992
Pd 15.51579799 7.79632179 7.81676651
Pd 15.58139865 9.70822568 9.72478915
Pd 17.50550945 7.80458263 9.72804061
Pd 17.45177084 9.81188861 7.82979664
Pd 15.59453143 7.75754011 11.67440165
Pd 15.57454607 9.69394334 13.63966962
Pd 17.62732559 7.83945623 13.65511716
Pd 17.54252166 9.69678999 11.77898111
Pd 15.54131202 7.82288390 15.61743785
Pd 15.51692972 9.78510724 17.55037525
Pd 17.52506809 7.81015260 17.55385523
Pd 17.54689252 9.77348824 15.65128426
Pd 15.47388139 11.70095982 0.00276295
Pd 15.51803663 13.61080058 1.92147101
Pd 17.48811524 11.66409399 1.98580073
Pd 17.46249151 13.59603567 0.04991988
Pd 15.59822853 11.62158810 3.84617683
Pd 15.61163121 13.63885675 5.73831809
Pd 17.54967755 11.64756002 5.83883346
Pd 17.56656950 13.74987049 3.86337124
Pd 15.54499636 11.80462568 7.81022158
Pd 15.54516370 13.64779650 9.72734762
Pd 17.48401692 11.58111732 9.81435768
Pd 17.52543831 13.58377519 7.75196659
Pd 15.51655606 11.60652034 11.65307381
Pd 15.59126964 13.58583938 13.61522838
Pd 17.49663728 11.64096120 13.64848222
Pd 17.57318580 13.51642781 11.64909745
Pd 15.53272798 11.69784052 15.56696108
Pd 15.54896213 13.60825255 17.49627540
Pd 17.47541903 11.70380093 17.52280250
Pd 17.56696161 13.62675429 15.53038553
Pd 15.59177585 15.50608956 0.00133997
Pd 15.62843925 17.50039064 2.03618593
Pd 17.50988037 15.58453248 1.91869018
Pd 17.50971808 17.52031021 0.01145610
Pd 15.60127457 15.48817754 3.91224962
Pd 15.49085760 17.45410108 5.83178642
Pd 17.58517173 15.55057369 5.89810687
Pd 17.45098156 17.42584706 3.89902441
Pd 15.40765359 15.56477677 7.87460093
Pd 15.55364274 17.54292014 9.77539413
Pd 17.45396923 15.62628411 9.64484439
Pd 17.48930420 17.47752213 7.72746851
Pd 15.50250045 15.52123537 11.65858679
Pd 15.54324328 17.45245744 13.59441865
Pd 17.45632554 15.56278305 13.57249525
Pd 17.54666174 17.49790988 11.69159414
Pd 15.61145454 15.46569831 15.54113812
Pd 15.57896998 17.46100155 17.52664835
Pd 17.48899586 15.51856649 17.49572856
Pd 17.59124612 17.50493903 15.46873335
