500
Final configuration Lattice="17.60000000 0 0  0 17.60000000 0  0 0 17.60000000" Properties=species:S:1:pos:R:3
Ni 0.42443082 17.57745595 0.14347993
Ni 0.17955894 1.77614006 2.28319828
Ni 1.87834661 0.03014139 1.99957940
Ni 2.31932490 1.61185356 0.06112715
Ni 0.10286150 17.38984402 3.59061559
Ni 17.11582707 1.65907675 5.40746546
Ni 1.79794067 17.34803104 5.76133802
Ni 1.55412234 1.49021886 3.99862435
Ni 0.23716272 0.13921728 7.17330449
Ni 0.17671317 2.13889627 8.77501881
Ni 1.39561152 17.23294281 8.94581922
Ni 1.69792967 1.81148370 7.17669284
Ni 17.48942064 0.01819501 10.97139949
Ni 0.10139475 1.88211632 12.73076779
Ni 1.80631078 0.02030893 12.37356365
Ni 1.41717021 1.69590958 10.65477599
Ni 0.01927165 0.11448665 14.02059568
Ni 0.28831845 1.74840093 15.87915958
Ni 1.67102792 0.05300153 15.74506281
Ni 1.94051329 1.75593438 14.16931912
Ni 0.21515448 3.59322005 17.32167037
Ni 17.57717705 4.99192896 1.29634757
Ni 1.61228135 3.42432822 1.45498386
Ni 2.01085900 5.18869890 0.23118566
Ni 0.07268672 3.88049727 3.33350791
Ni 0.34141140 5.43217094 5.24280523
Ni 1.60861984 3.40494496 5.41966407
Ni 2.12517704 5.04027981 3.24779453
Ni 17.43807316 3.62219497 7.00643979
Ni 0.05644939 5.25485605 8.66945660
Ni 1.85419883 3.49035171 8.98603182
Ni 1.67382894 5.61358857 7.17795374
Ni 0.03601332 3.78191768 10.81698183
Ni 17.56708993 5.60935710 12.42359563
Ni 1.72472729 3.45887859 12.38741187
Ni 1.67448541 5.33540616 10.50098642
Ni 0.10980375 3.56779717 14.05989570
Ni 0.20831809 5.40399974 16.09907097
Ni 1.97972025 3.27749041 15.90885490
Ni 1.44957932 5.18003653 14.34516405
Ni 0.38134637 7.19589174 17.43640129
Ni 0.16034383 8.73718830 1.43507051
Ni 1.92851707 7.03332389 1.46299760
Ni 1.82153885 9.24857651 17.49041812
Ni 0.39592659 6.53047684 3.07628736
Ni 17.46084579 8.98088858 5.68643607
Ni 1.90853563 7.46112983 5.60874328
Ni 1.88908170 8.47178689 3.19935315
Ni 17.52644621 7.34725603 7.33570524
Ni 0.41975331 9.05524593 9.09852642
Ni 1.80187143 7.10729030 8.97362393
Ni 1.68343629 8.97190781 7.23945698
Ni 0.03148183 7.20130903 10.63674942
Ni 0.44139941 8.75926266 12.31055239
Ni 1.63589508 7.06770484 12.23839479
Ni 2.13490624 8.89446028 10.98318743
Ni 17.55682736 7.09804062 14.42597684
Ni 17.54508047 8.81654616 16.11078377
Ni 1.99783158 7.14798716 15.93776795
Ni 1.91731822 8.89584640 14.16589283
Ni 17.32370865 10.60450402 17.44800156
Ni 17.55983261 12.01589464 1.67229269
Ni 1.94678466 10.59678563 1.62507678
Ni 1.62789877 12.23587782 17.59572352
Ni 0.40831573 10.48365602 3.62458277
Ni 0.26710760 12.62042790 5.23406090
Ni 1.39989862 10.62795730 5.60927376
Ni 1.64599501 12.18472917 3.48663769
Ni 17.56945486 10.57768460 7.52217857
Ni 0.03573139 12.35647943 9.42316003
Ni 1.80902241 10.79993005 9.19599901
Ni 1.46548093 12.38345808 7.59218284
Ni 0.13948165 10.58439233 10.80880197
Ni 17.28006042 12.32090032 12.54337026
Ni 1.82473213 10.50939579 12.51163771
Ni 1.67484115 12.42920567 11.03627473
Ni 17.58072835 10.32373996 14.08969256
Ni 17.27026069 12.05493559 15.50594660
Ni 1.42257915 10.84155070 15.62126791
Ni 1.44618386 12.46348890 13.69972365
Ni 17.38388357 13.86993931 17.54415076
Ni 0.17141007 15.77356041 1.97220059
Ni 1.56085396 13.74594334 1.74969167
Ni 1.38876941 15.43880353 17.42788912
Ni 17.55291362 14.30608229 3.63377598
Ni 17.49389923 15.90388343 5.35056984
Ni 1.88133253 14.16296878 4.95421415
Ni 1.72576277 15.91382648 3.62071868
Ni 17.13189625 13.85337172 7.43801657
Ni 17.15241427 15.94735315 8.88133897
Ni 1.46706911 14.12956939 9.09764966
Ni 1.52194111 15.24149751 7.19183869
Ni 17.25283722 14.05038905 10.83814946
Ni 0.08378298 15.62692936 12.36070150
Ni 1.87431937 14.37417380 12.26560089
Ni 1.58836617 15.73977763 10.69278196
Ni 0.14168314 14.07293695 14.17267159
Ni 17.50341547 15.69015271 15.91416135
Ni 1.31064206 13.70514747 15.91511866
Ni 1.50696570 15.80654977 13.99725666
Ni 3.62956652 17.33941113 0.21238815
Ni 3.10878939 1.95352801 2.11987692
Ni 4.88913291 17.12656211 2.09413451
Ni 5.08754256 1.35952507 0.07991199
Ni 3.16183527 0.12831159 3.87692659
Ni 3.48660573 1.52865143 5.52494802
Ni 5.64108359 0.10509786 5.49552265
Ni 5.03146500 1.26225283 3.56568036
Ni 3.70094223 17.35354004 7.34225725
Ni 3.04464523 1.35609994 8.87430431
Ni 5.53671176 17.49095473 8.77859523
Ni 5.11667850 1.80510752 7.63137244
Ni 3.26041534 17.29203199 10.52545852
Ni 3.24966327 1.71777007 12.42807588
Ni 5.40208410 0.02276355 11.59661367
Ni 5.29810446 1.78801499 10.06468752
Ni 4.03204841 0.08848150 14.04820764
Ni 3.81305254 1.90501395 15.77873297
Ni 5.28336568 17.42933347 15.93475011
Ni 5.20316590 2.04687502 14.07152018
Ni 3.61807413 3.19638574 0.01043100
Ni 3.69535059 5.08283763 1.70572307
Ni 5.32546739 3.53916810 2.04034065
Ni 5.77132208 5.38170376 17.27992598
Ni 3.84147658 3.09069371 4.01193659
Ni 3.18530521 5.46691504 5.36682030
Ni 5.12582929 2.99971712 5.97286575
Ni 5.29467647 4.72102809 4.19517974
Ni 3.12530904 3.66140881 7.13891491
Ni 3.38989503 5.53070822 8.81437521
Ni 4.86899990 3.90648601 8.54657928
Ni 5.63480363 5.11293817 6.58201232
Ni 3.53410828 3.59937377 10.29426439
Ni 3.22486458 5.27131576 12.02653222
Ni 4.87448308 3.04627899 12.08281493
Ni 5.20650230 5.17000150 10.96899214
Ni 3.40986013 3.72920921 13.88693904
Ni 3.24032762 5.11640537 15.73170401
Ni 5.19583494 3.80462217 15.79921321
Ni 5.21491976 5.30256782 13.99657327
Ni 3.94527166 6.37283934 0.16393937
Ni 3.38544113 9.01603655 1.65484090
Ni 5.01953286 7.37699546 1.87925510
Ni 5.34113873 8.65478437 17.40647925
Ni 3.63460901 6.91383408 3.55365839
Ni 3.43984788 9.24101762 5.97793200
Ni 4.94977754 6.87203222 5.42625846
Ni 5.31514890 8.85700436 3.65033031
Ni 3.26566614 7.31769940 7.21970230
Ni 3.42872642 8.74811562 9.20670330
Ni 5.15198688 7.04939775 8.79979350
Ni 5.28511455 8.77230572 7.31896013
Ni 3.77015104 7.01967387 10.38080994
Ni 3.80967273 8.76605836 12.66308191
Ni 5.14886733 6.96922444 12.07209197
Ni 5.16544554 8.74030545 10.43845644
Ni 3.38171906 7.00759724 13.88715011
Ni 3.90329994 8.92803159 15.81489844
Ni 5.40453485 7.15394750 15.47010378
Ni 5.67747820 9.37075998 13.80695237
Ni 3.61671336 10.35779868 17.56668044
Ni 3.47553663 12.34761885 1.74279881
Ni 5.10678262 10.53757772 1.76229281
Ni 4.93788834 12.34355139 0.15158584
Ni 3.50194396 10.19262011 3.56178606
Ni 3.42788987 12.43730282 5.20220849
Ni 5.23456659 10.73657571 5.09602014
Ni 5.41165069 12.39820422 3.36779964
Ni 3.33954119 10.97042438 7.24549784
Ni 3.37160465 12.43456236 9.10032477
Ni 5.16643028 10.48857746 8.80353604
Ni 5.32759052 12.05737038 6.89052996
Ni 3.34533643 10.91414525 10.93106384
Ni 3.55277535 12.08811739 12.76245324
Ni 5.14705074 10.49858595 12.07261462
Ni 5.33332634 12.37150593 10.47613402
Ni 3.40144808 10.45637262 14.35648123
Ni 3.32838001 12.34129224 15.64649863
Ni 5.31092901 10.75202583 16.16649467
Ni 5.46955408 12.21475334 14.42232030
Ni 3.18508591 13.93781207 17.24947787
Ni 3.17016464 15.59974102 1.42206951
Ni 5.12584214 14.17846990 1.36588615
Ni 5.09015289 15.49946493 17.10514281
Ni 3.51335404 14.16173799 3.14861871
Ni 3.61493387 15.95754378 5.38888779
Ni 5.14007708 13.97433683 5.22092238
Ni 5.07561416 15.69309411 3.79577484
Ni 3.75930331 14.15291013 6.86769943
Ni 3.52988969 15.57198054 8.69026017
Ni 5.36271680 13.87873977 8.55144935
Ni 5.54065737 15.54288202 6.84784473
Ni 3.39607435 14.22687738 10.68512278
Ni 3.80936296 15.98627550 12.18984410
Ni 5.16171238 13.89240856 12.72472891
Ni 5.50046728 15.51461015 10.19251782
Ni 3.10032381 14.21855106 14.14685622
Ni 3.24949230 15.85174446 15.90431205
Ni 5.22413833 13.96851020 15.76773750
Ni 5.49153966 15.70232031 14.49334857
Ni 6.91093076 17.26620890 0.16220213
Ni 6.84903677 1.57520402 1.66135028
Ni 8.76404563 0.06652152 1.81204651
Ni 8.42289664 1.48114695 17.41093636
Ni 6.83859303 17.57120845 3.51659399
Ni 7.05935485 1.48203515 5.43618365
Ni 8.72618042 0.10637078 5.27691747
Ni 8.59974911 1.79718795 3.41255797
Ni 7.43735894 17.13545582 7.11906621
Ni 7.33301453 2.02450842 8.64975716
Ni 8.87546693 0.18207677 8.87623212
Ni 8.82794978 1.54153835 7.16722589
Ni 7.35080882 17.42788025 10.60216174
Ni 7.03681908 1.80976363 12.33718176
Ni 8.92130462 17.23724544 12.72609252
Ni 9.11923963 2.08212853 10.47009833
Ni 6.55501168 0.12959590 13.94952836
Ni 6.49782652 1.81577651 15.80675056
Ni 8.83104583 0.13054687 15.65725956
Ni 8.77610167 1.67289791 13.93193706
Ni 6.46087127 3.25883206 0.00427648
Ni 6.65326854 5.28183811 2.39974094
Ni 8.25598242 3.55721483 1.78143596
Ni 8.32032136 5.26634801 17.49653758
Ni 6.76742946 3.04448030 3.59188252
Ni 7.36560365 5.48359135 5.19793845
Ni 8.74191447 3.45639608 4.96906499
Ni 8.86720585 5.26504982 3.36741766
Ni 7.41229001 3.53983669 7.01223103
Ni 6.83493079 5.15521986 8.57922286
Ni 8.91507277 4.14238412 9.18456584
Ni 8.71404543 5.46296215 7.19358766
Ni 6.43549725 3.51748259 10.44654728
Ni 7.06490276 5.67001248 12.66939341
Ni 8.52083508 3.72194538 12.01497759
Ni 9.13045198 5.61246233 10.99766301
Ni 7.07007295 3.37760638 13.74731021
Ni 7.28942339 5.39851921 15.31170728
Ni 8.24566469 3.43843114 16.17326545
Ni 9.14610619 5.24158394 14.12975239
Ni 7.02084323 6.96207486 17.34694183
Ni 6.95063513 8.92266285 1.64982749
Ni 8.94030318 7.14748379 1.40911394
Ni 9.06598277 9.08680669 17.25721126
Ni 6.87685199 7.30320650 3.32720841
Ni 6.70520797 8.52836238 5.29284057
Ni 8.89582114 7.11120949 4.75922598
Ni 8.47548076 8.86240053 3.69017008
Ni 6.82131772 7.26156496 7.47208075
Ni 7.12846137 8.91772928 9.11864069
Ni 9.22606694 6.93981182 9.07306474
Ni 8.46373549 8.95186346 6.78307543
Ni 6.99621360 7.09330611 10.31102813
Ni 6.96301653 8.86347521 11.64530516
Ni 8.77344512 7.59792852 12.13340214
Ni 9.43429109 9.09160958 10.36586336
Ni 7.33045878 7.67089679 13.67062111
Ni 7.08422438 8.76393649 15.90360288
Ni 8.59842256 6.94035092 15.67334177
Ni 9.28592542 8.83561985 13.99367872
Ni 7.24950063 10.60261883 0.10027565
Ni 6.88698771 12.36057551 1.42935150
Ni 8.69485069 10.44635844 1.82909194
Ni 8.74030103 12.58532299 17.59454888
Ni 7.05186216 10.88036280 3.35254054
Ni 6.90234093 12.53525983 5.16677036
Ni 8.67678975 10.69892559 5.01252811
Ni 8.68391830 12.42323801 3.35108133
Ni 7.15828743 10.94433415 6.71685013
Ni 6.94153587 11.88243459 8.63153228
Ni 8.79602525 10.44671299 8.19422248
Ni 9.07185937 12.13201612 6.64956532
Ni 7.31178853 10.89583376 10.61026996
Ni 6.97643860 12.18612066 12.94762480
Ni 8.78864123 10.59056258 12.66635000
Ni 8.92650390 12.49760666 10.34414217
Ni 7.40798292 10.71796402 14.42077214
Ni 6.87141003 12.24888726 16.25461165
Ni 8.99560773 10.95778563 16.09917491
Ni 9.05639101 12.54162141 14.39775092
Ni 6.66868105 14.10429351 17.38212289
Ni 6.72533590 15.68869718 1.79666755
Ni 8.49479873 14.07745400 1.75722895
Ni 8.52848295 15.75706793 0.32114448
Ni 6.96729737 14.14390334 3.47723110
Ni 6.77456010 15.63137440 5.01982258
Ni 9.22795553 13.80278435 4.91688433
Ni 8.72188348 15.73816071 3.46268716
Ni 7.33228464 14.04392142 6.80434397
Ni 7.45246004 15.37078599 8.97304595
Ni 9.17559671 13.82813361 8.53810646
Ni 9.00240868 15.63802273 6.32784996
Ni 7.00764789 13.71944041 11.13599404
Ni 6.75660502 15.89665663 12.41348337
Ni 8.76843232 13.88288225 12.74276249
Ni 8.91089082 15.42665229 10.72113744
Ni 7.15856049 14.07495209 14.55008222
Ni 6.97559696 15.99044874 16.16277743
Ni 9.03785385 14.39108749 16.10178926
Ni 8.86874498 15.76691569 14.39879354
Ni 10.29475604 17.41562209 0.08588078
Ni 10.43431062 1.67930273 1.54328569
Ni 12.37200417 0.10394790 1.75479766
Ni 12.08942447 1.92180492 0.41622630
Ni 10.55016434 0.30618934 3.45135892
Ni 10.13960976 1.89960776 5.39912438
Ni 12.52429320 0.46657239 5.41934014
Ni 12.12847530 1.99865826 3.19937516
Ni 10.55651501 0.09384420 7.02670490
Ni 10.51640467 1.69550874 8.67612642
Ni 12.00688318 0.06980755 8.72842905
Ni 12.48970931 1.88634346 7.31731171
Ni 10.59957080 0.08686854 10.50196179
Ni 10.68166599 2.03114800 12.67883476
Ni 11.93992286 0.16510520 12.32767943
Ni 12.17544270 2.01670425 10.46177422
Ni 10.54198733 0.17715217 14.44744019
Ni 10.44137270 1.56698655 16.04888212
Ni 12.62279368 17.54798185 16.33329078
Ni 12.55805180 1.32409670 14.37391422
Ni 10.05440102 3.38404025 17.53960955
Ni 10.30343930 5.42247183 1.47776003
Ni 12.08475035 4.10827216 1.72540870
Ni 12.00653482 5.25758673 17.31335344
Ni 10.38353475 3.52161004 3.26912399
Ni 10.14627251 5.37780283 5.29199349
Ni 12.53162464 3.66483335 5.32507673
Ni 12.00068254 5.19079394 3.75046342
Ni 10.43739522 3.53695645 6.79756071
Ni 10.68506296 5.44298466 8.48894331
Ni 12.13548523 3.98316495 8.67398450
Ni 12.26212406 5.34538059 6.68238329
Ni 10.73420540 3.88856241 10.71256843
Ni 10.64014509 5.36264911 12.46450222
Ni 12.40780315 3.41282569 12.47959485
Ni 12.76505126 5.61196370 10.57048753
Ni 10.23554072 3.43445039 14.70178163
Ni 10.17556710 5.14577784 15.97724654
Ni 12.13244819 3.22384541 15.94900346
Ni 12.39440215 5.16110620 13.89955629
Ni 10.24860616 7.15849903 17.21322642
Ni 10.58595642 8.49979852 1.48109747
Ni 12.21035719 6.94592094 1.53349864
Ni 12.40712419 8.56881624 17.28806264
Ni 10.43431134 7.10638775 3.21575396
Ni 10.48121021 8.74359004 4.90363544
Ni 12.64750323 7.05443354 5.26438148
Ni 12.28555253 8.46147974 3.31544906
Ni 10.11482203 7.12678232 6.84289949
Ni 10.73411486 8.73853856 8.23466607
Ni 12.48806500 6.77582385 8.50815540
Ni 12.68822387 8.67936750 6.86733261
Ni 11.15902490 7.19486597 10.56848008
Ni 10.67777130 8.92488632 12.33717105
Ni 12.68678073 6.97451382 12.30676640
Ni 12.44939492 9.16239577 9.94269504
Ni 10.68390984 6.84641545 14.11757068
Ni 10.64358384 9.03886085 15.67127523
Ni 12.05614004 6.73646369 15.68360867
Ni 12.24311061 8.93122933 14.02721961
Ni 11.10041829 10.62884031 17.22666146
Ni 10.35986950 12.11985030 1.52512521
Ni 12.30454638 10.59103277 1.67054500
Ni 12.76581730 12.53544032 0.19083289
Ni 10.74912070 10.31176706 3.28736684
Ni 10.79012703 12.05222623 5.13239870
Ni 12.19356341 10.48626179 4.89866315
Ni 12.27918860 12.36961736 3.48156469
Ni 10.50138101 10.23253549 6.51804774
Ni 10.35593336 11.78094914 8.45496990
Ni 12.46810435 10.37672219 8.12632978
Ni 12.22369969 12.33403853 6.97999478
Ni 10.54102743 11.04159380 10.65057533
Ni 10.45128985 12.29586163 12.47270059
Ni 12.14829297 10.49078799 12.16723483
Ni 12.26396972 12.47411769 10.20988349
Ni 10.48384139 10.74472870 14.08388026
Ni 11.34624284 12.44787759 15.85195545
Ni 12.85481175 10.53903843 15.53375812
Ni 12.40118183 12.32315579 13.78200461
Ni 10.21435712 14.22115905 0.29996829
Ni 10.73978341 16.01068835 2.01358917
Ni 12.63274076 14.00651237 1.82744990
Ni 12.18766033 15.62276819 0.31387243
Ni 10.64608178 13.92918687 3.17008136
Ni 10.72020652 16.11003435 4.76673358
Ni 12.07139154 14.19176863 5.36316999
Ni 12.67236442 15.87061090 3.40268432
Ni 10.35424862 14.04282224 6.81341052
Ni 10.13578581 15.76727562 8.46204026
Ni 11.88029724 14.26731532 8.32628000
Ni 12.09500388 16.01216127 6.68929015
Ni 10.49348369 13.87580818 10.48861829
Ni 10.65748679 15.80955453 12.34521856
Ni 12.28539865 13.97986002 11.97142789
Ni 11.91123302 15.80038595 9.99983668
Ni 10.52907441 14.26592225 14.35333433
Ni 10.48534104 15.97282324 16.02717228
Ni 12.52722989 14.53665568 15.91617928
Ni 12.13808736 16.42759725 14.51694355
Ni 14.36670589 17.58180499 0.26917801
Ni 14.10756445 1.63177482 1.86036513
Ni 16.14687376 0.33915460 1.87350587
Ni 15.99731933 1.92825327 0.07754551
Ni 13.91967494 0.30078236 3.59088930
Ni 14.28691870 2.21433207 5.34217020
Ni 15.84693735 17.37889640 5.83670862
Ni 15.72723646 2.15688816 3.68471602
Ni 13.98653177 0.07650001 7.49218253
Ni 13.97077725 2.18125198 8.87071154
Ni 15.96148387 0.32736084 8.99246739
Ni 15.66374457 1.80877973 7.55508177
Ni 13.81427480 17.41429741 10.62983741
Ni 13.89071609 1.72223516 12.31493441
Ni 15.34286013 17.52605019 12.21878316
Ni 15.63191290 1.98379073 10.84891580
Ni 14.29883684 17.28641958 14.15831222
Ni 14.48463950 1.47453400 15.85210341
Ni 16.02906656 17.45003553 15.82624251
Ni 15.87721179 1.67818624 14.20528744
Ni 13.72177431 3.23530643 17.41977279
Ni 13.91050038 5.11054829 1.13678461
Ni 16.20493053 3.33782090 1.57435969
Ni 15.89861737 5.19153775 17.48094267
Ni 13.90130052 3.82405175 3.32317552
Ni 14.43801030 5.45637412 4.99586479
Ni 16.26418672 3.67723222 5.07910994
Ni 15.89462512 5.33105084 2.82946006
Ni 14.33050693 3.51256942 6.95681255
Ni 14.26063293 4.97508921 9.00979979
Ni 16.04823928 3.72079508 8.74404194
Ni 16.04141498 5.22695683 6.67306695
Ni 14.04264009 3.50182095 10.81381471
Ni 14.25523345 5.39991053 12.52686327
Ni 15.94371159 3.37886121 12.53730832
Ni 15.57394495 5.08628107 10.80957249
Ni 14.02970720 2.90446718 14.15017299
Ni 13.91623443 5.32258161 15.75834177
Ni 15.96169181 3.43602968 15.81651189
Ni 15.99226900 5.22270479 14.26359714
Ni 14.23557082 7.09354603 0.04403066
Ni 13.87547886 9.15171897 1.98795278
Ni 16.09044577 7.15177654 1.44225840
Ni 15.79424890 8.77565773 17.30292841
Ni 13.99428601 6.74019371 2.88771056
Ni 14.34271658 8.47711872 5.25445493
Ni 16.33910569 6.81703203 5.14233645
Ni 16.42297817 8.19149987 3.35299793
Ni 14.16537350 6.47361721 7.12310136
Ni 13.89182805 8.27254695 8.61184046
Ni 16.09480038 6.81744545 8.95596580
Ni 15.92114529 9.11454325 7.17464566
Ni 14.56914839 7.17989277 10.73623828
Ni 14.12364093 8.93334661 11.89402727
Ni 15.86942749 6.99539881 12.39001764
Ni 15.88018447 8.88106334 10.50105662
Ni 14.02803503 7.01573748 14.28575005
Ni 14.12757222 8.64447947 15.57181590
Ni 15.82512396 6.85495658 15.71010860
Ni 15.65627298 8.59121276 13.84158110
Ni 14.01539445 10.39293147 17.49637469
Ni 14.11298262 12.07475716 2.17218821
Ni 15.86693301 10.28015712 1.76735500
Ni 15.67478379 12.13506574 0.20607011
Ni 14.96972472 9.95304607 3.82035760
Ni 14.09515349 12.52888596 4.81103902
Ni 16.32259391 10.93808569 5.39287326
Ni 15.91993513 12.32590709 3.47226402
Ni 14.32956166 10.51754285 6.73724072
Ni 13.80638286 12.32799592 8.49557077
Ni 15.69703807 10.64446530 8.93035607
Ni 15.66724689 12.19575130 7.12270200
Ni 13.97526764 10.69774725 10.33071277
Ni 13.98337346 12.34914170 12.12160618
Ni 15.88438411 10.60674442 12.16153588
Ni 15.51683598 12.55467304 10.70021628
Ni 14.02162054 10.42147153 13.65819150
Ni 13.72929323 12.61618755 15.54675291
Ni 15.56873347 10.24003943 15.52465978
Ni 15.73553140 11.84595899 13.94542652
Ni 14.76887950 14.27410229 0.18865820
Ni 14.40184056 15.95318925 1.89098203
Ni 15.87849041 14.05753298 2.11063429
Ni 16.21985020 16.19096534 0.42123412
Ni 14.09754692 14.15367515 3.49513322
Ni 14.09325526 16.09596523 5.44148973
Ni 15.78206739 13.85363237 5.30927465
Ni 15.75317589 15.86827835 3.66668103
Ni 13.91955611 14.01448225 6.84966131
Ni 13.90911296 15.42060618 8.50682754
Ni 15.63473847 14.09833943 9.20706630
Ni 15.80655852 15.55412315 6.99584390
Ni 13.68568660 14.08930549 10.17360985
Ni 13.68837269 15.71469885 12.26844914
Ni 15.78652472 14.13803399 12.91121218
Ni 15.64919590 15.68165375 10.93604867
Ni 13.90551680 14.41512195 13.99862835
Ni 14.38768758 16.00543201 16.20664922
Ni 15.74265301 14.04480276 15.74467024
Ni 16.15174141 16.14989178 14.01999686
