500
Final configuration Lattice="17.60000000 0 0  0 17.60000000 0  0 0 17.60000000" Properties=species:S:1:pos:R:3
Ni 0.05754771 0.23930217 17.56040031
Ni 0.02086514 1.63296082 1.96100144
Ni 1.71546692 17.45572249 2.10516698
Ni 1.92380993 1.76300127 17.41939700
Ni 17.41624036 0.14458353 3.60805414
Ni 0.07623658 1.80790350 5.35004345
Ni 1.64476029 0.16314993 5.23001064
Ni 1.61358492 1.84638854 3.59082369
Ni 17.44195036 0.05413272 6.97444617
Ni 17.51375642 1.84232601 8.74934442
Ni 1.54826048 0.20721467 8.80116740
Ni 1.69649104 1.78761729 7.00798038
Ni 17.52390242 0.16942575 10.56776369
Ni 0.12036806 1.78979114 12.43604038
Ni 1.67214021 0.06274373 12.43216319
Ni 2.04133234 1.68381127 10.69908884
Ni 17.42645512 0.10588744 14.03724022
Ni 0.05511180 1.80957211 15.77643846
Ni 1.67480509 17.56063437 15.90439621
Ni 1.78700949 1.47542907 14.20998797
Ni 0.09587039 3.32775062 0.11460406
Ni 17.56938086 5.19800509 1.76558263
Ni 1.87297520 3.41017421 1.67005752
Ni 1.74683203 5.23046499 17.56904310
Ni 0.15976829 3.52813269 3.46772608
Ni 17.50045795 5.19200861 5.10108463
Ni 1.76623649 3.68591767 5.43213491
Ni 1.62920323 5.31534475 3.49079490
Ni 0.04383980 3.52959674 7.15667402
Ni 0.06738147 5.21948470 8.90700106
Ni 1.75489441 3.35192187 8.91706522
Ni 1.60232397 5.23113059 7.17847764
Ni 17.51871305 3.19451231 10.63968827
Ni 17.57852575 5.08714340 12.28281538
Ni 1.85214973 3.41545972 12.43641202
Ni 1.70488414 5.11282228 10.57433185
Ni 0.01203370 3.45799124 14.10750895
Ni 0.04472406 5.18690431 15.73505942
Ni 1.91334966 3.53804081 15.86359723
Ni 1.95856495 5.29596965 14.08414463
Ni 0.03544528 7.10929157 17.54636855
Ni 0.13318214 8.92120676 1.76739804
Ni 1.61993143 6.94874181 1.61671356
Ni 1.83410446 8.74258996 0.08750635
Ni 17.57303545 7.05897823 3.50933812
Ni 0.04288904 8.94041871 5.23570457
Ni 1.68172856 7.04820675 5.45640418
Ni 1.67094984 8.72343308 3.56416026
Ni 0.04838977 7.12234339 7.18333522
Ni 0.04686930 9.02355732 8.82264264
Ni 1.69269960 7.13819896 9.00857578
Ni 1.70524457 8.85336305 7.02461344
Ni 0.08071291 7.01028501 10.46213103
Ni 0.03102365 8.80121402 12.42210303
Ni 1.81388188 6.95801781 12.32293961
Ni 1.62899201 8.67076129 10.62381486
Ni 17.55643530 6.95626169 14.33325330
Ni 0.20099642 8.74781015 15.75263062
Ni 1.76743298 6.91893214 15.81331819
Ni 1.71124378 8.71859729 14.01885418
Ni 0.00057994 10.74629253 17.55002769
Ni 0.11296459 12.42668572 1.61427373
Ni 1.80043437 10.46145006 1.82754988
Ni 1.71262989 12.33255120 17.51650400
Ni 0.15227740 10.63902909 3.36876491
Ni 0.29680219 12.45482119 5.13660944
Ni 1.81900043 10.61133781 5.18373461
Ni 1.88377157 12.68079412 3.34554774
Ni 0.23020014 10.64624683 7.04899731
Ni 17.54500638 12.44113517 8.57220561
Ni 1.84156704 10.63024504 9.02028369
Ni 1.71208139 12.37373495 6.92748548
Ni 17.56626621 10.71021668 10.39884178
Ni 17.56292056 12.51466350 12.00109433
Ni 2.06129125 10.70511291 12.28489041
Ni 1.66163670 12.54271011 10.31268186
Ni 17.51074937 10.67260339 13.92000581
Ni 0.12077201 12.44734462 15.75409060
Ni 1.68205251 10.45516973 15.91349563
Ni 1.87469313 12.36243707 13.88453148
Ni 17.48299868 14.43874121 17.41420781
Ni 0.04054727 15.86889986 1.85034735
Ni 1.80473540 14.23526488 1.53408685
Ni 1.67407324 15.93873051 17.49569409
Ni 0.06066014 14.20617766 3.58188210
Ni 0.05697063 15.88429116 5.08743208
Ni 1.99168531 14.20527884 5.32573315
Ni 1.92457337 15.73550516 3.71780137
Ni 17.56444344 14.23560578 6.98963336
Ni 17.29723754 16.05306443 8.74774386
Ni 1.77545862 14.36323629 8.50963540
Ni 1.83401211 16.05083146 6.96194129
Ni 17.59942006 14.08633977 10.43499724
Ni 0.02778985 15.91753136 12.05277393
Ni 1.58223711 14.13038410 12.25390809
Ni 1.62329738 15.75775235 10.38560039
Ni 17.37383909 13.96054052 14.04465709
Ni 17.58803217 16.02078917 15.70580716
Ni 1.68715432 14.09663192 15.83046201
Ni 1.65853304 15.78449348 14.14887670
Ni 3.35421458 0.00511401 17.54696366
Ni 3.61357654 1.80622195 1.82882001
Ni 5.35259609 17.51643272 1.65938553
Ni 5.08413534 1.56707369 17.49139746
Ni 3.51896239 0.15120049 3.48118517
Ni 3.41441825 1.88181163 5.07838048
Ni 5.34465972 0.09180042 5.39177713
Ni 5.38990222 1.68312388 3.56082281
Ni 3.31723569 0.17870606 7.03527474
Ni 3.50988830 1.69359770 8.98849139
Ni 5.16239258 17.58907732 8.63182023
Ni 5.12638846 1.76748265 7.03436654
Ni 3.73671966 17.39186573 10.63513102
Ni 3.54229044 1.63954163 12.53586538
Ni 5.34063339 17.49911347 12.46727934
Ni 5.26241408 1.75523288 10.57564762
Ni 3.65520790 17.54693913 14.03331255
Ni 3.52204702 1.63013940 15.70930502
Ni 5.20201666 17.49229814 15.73527390
Ni 5.45445455 1.76161707 14.05008752
Ni 3.57703162 3.36835977 17.41165141
Ni 3.53999116 5.40759174 1.68350116
Ni 5.27046494 3.66239664 1.76152256
Ni 5.39333635 5.27048864 17.39862554
Ni 3.50066905 3.63419610 3.68845864
Ni 3.48212272 5.39809844 5.36737866
Ni 5.24380350 3.48568827 5.26866166
Ni 5.13943536 5.38544416 3.52722918
Ni 3.24785755 3.58983341 7.25683564
Ni 3.36560725 5.24340653 8.89570898
Ni 5.06938972 3.48309071 8.78136352
Ni 4.99981871 5.33340346 7.10386877
Ni 3.68276558 3.45374653 10.56169557
Ni 3.42425088 5.12586317 12.29757732
Ni 5.15163104 3.25698391 12.39770918
Ni 5.17206118 5.33066317 10.68647944
Ni 3.52246034 3.54851242 14.11728582
Ni 3.59678098 5.15192575 16.03548017
Ni 5.44956721 3.30678486 15.80528242
Ni 5.37701291 5.09025615 14.18671974
Ni 3.56217226 7.09743783 17.51626376
Ni 3.40427112 8.70782564 1.90331631
Ni 5.33122269 6.93471960 1.85674897
Ni 5.30518062 8.93354855 0.16868783
Ni 3.23512974 6.93473543 3.67199434
Ni 3.48143907 8.82890935 5.26384178
Ni 5.20122494 7.08477651 5.42076933
Ni 5.10484472 8.66995580 3.76480972
Ni 3.36606720 7.27406257 7.02713762
Ni 3.46332216 8.68229544 8.93896212
Ni 5.07544581 7.07719800 8.66804793
Ni 5.32052379 8.71801123 6.85417157
Ni 3.53188878 6.82129491 10.45524731
Ni 3.38904909 8.66255245 12.49422424
Ni 5.23502164 7.01744018 12.34859801
Ni 5.17003817 8.82521749 10.68657233
Ni 3.56453734 7.01262350 14.35071725
Ni 3.62189888 8.78476407 16.08734950
Ni 5.51888225 7.12943626 16.09485340
Ni 5.10805670 8.81012472 14.22299049
Ni 3.52166438 10.45822717 17.53693857
Ni 3.46950161 12.09246459 1.61264415
Ni 5.28565445 10.44460578 1.78796558
Ni 5.37812867 12.13790223 17.55467980
Ni 3.37114298 10.58941855 3.51199328
Ni 3.52100848 12.27335761 5.01512224
Ni 5.12054612 10.60592070 5.12153612
Ni 5.24049962 12.24532485 3.37756813
Ni 3.59621986 10.54950318 6.76318444
Ni 3.45332386 12.45895340 8.73875237
Ni 5.13134442 10.33715566 8.67889900
Ni 5.33731210 12.39396410 7.16296442
Ni 3.65351521 10.87399365 10.50870688
Ni 3.63287381 12.57031308 12.20908614
Ni 5.25257090 10.62572730 12.24007075
Ni 5.50162831 12.35883848 10.47517283
Ni 3.55366610 10.59547896 14.27390318
Ni 3.43447092 12.17317023 15.98501978
Ni 5.42413992 10.35474276 16.07656835
Ni 5.23138359 12.24861056 14.33291656
Ni 3.51909765 13.88789247 17.50908685
Ni 3.29758652 15.85196219 1.60835371
Ni 5.28163234 13.94896045 1.60836355
Ni 5.18701974 15.74758014 17.55625087
Ni 3.54134315 14.25649590 3.30121513
Ni 3.59474370 16.17528563 5.23295171
Ni 5.14722821 14.04993556 5.22388372
Ni 5.23552994 15.94313707 3.62266481
Ni 3.47973016 13.96163630 6.97254837
Ni 3.53334338 15.97360120 8.69357821
Ni 5.26721166 14.22848418 8.78258834
Ni 5.24433532 15.67821174 6.90114620
Ni 3.36549585 14.23523062 10.36584598
Ni 3.44357255 15.63282521 12.18765654
Ni 5.33916631 14.00356429 12.28370477
Ni 5.43211672 15.60980060 10.45780915
Ni 3.54068692 14.28746775 14.18085579
Ni 3.40580853 15.92458094 15.93027555
Ni 5.29778954 14.16638982 15.83471182
Ni 5.35910196 15.77187540 14.02626262
Ni 7.25013309 17.47284293 17.53878764
Ni 6.76704605 1.71463515 1.85841882
Ni 8.75270787 0.07377940 1.87534586
Ni 8.75934827 1.67263392 0.08434592
Ni 7.10928013 17.58284765 3.49726549
Ni 6.84378057 1.83436797 5.44952708
Ni 8.57029867 17.52067527 5.32790943
Ni 8.73869217 1.83805018 3.64153643
Ni 6.96757822 17.50376416 7.25399799
Ni 6.96947116 1.82689331 8.72097541
Ni 8.80000677 0.05521610 8.65382372
Ni 8.76740642 1.56038271 6.86355799
Ni 7.02469940 17.58372099 10.42749832
Ni 7.18778581 1.63720874 12.20507670
Ni 8.82848853 17.59488599 12.29068827
Ni 8.77410920 1.64589207 10.38569401
Ni 7.12287922 17.56939415 14.02456608
Ni 7.10771670 1.73345559 15.87173605
Ni 8.90326532 0.06704543 15.83340372
Ni 8.98770143 1.79616304 13.99854724
Ni 6.87274361 3.36617785 17.51997889
Ni 7.05943241 5.14666956 1.67977532
Ni 8.69624574 3.31900873 1.75283822
Ni 8.93818249 5.32364432 0.22398946
Ni 6.83335084 3.37720786 3.42109730
Ni 7.06921655 5.32392812 5.24921920
Ni 8.63428879 3.66201533 5.35764205
Ni 8.47964056 5.15127525 3.49564935
Ni 7.17318236 3.67218101 6.99391205
Ni 6.80440331 5.39483075 8.78459894
Ni 8.70653025 3.29918134 8.89157835
Ni 8.80495353 5.33433449 7.31224351
Ni 7.04010137 3.68698378 10.78043153
Ni 6.97022781 5.26929527 12.60112231
Ni 8.78110507 3.77828071 12.34132180
Ni 8.92698971 5.43620496 10.51577537
Ni 7.16986062 3.47546085 14.19500561
Ni 6.97055895 5.22275732 15.86285405
Ni 8.91432728 3.65943496 16.09716814
Ni 8.78618835 5.29407381 14.09001503
Ni 6.98018668 7.01293273 0.19508277
Ni 6.92532390 8.65668454 2.01139864
Ni 8.80460231 7.10435458 2.12418409
Ni 8.79946406 8.51713402 0.18936395
Ni 6.83178255 7.01419837 3.63376613
Ni 7.14721588 8.89497342 5.40352049
Ni 8.75202727 7.03085950 5.12207445
Ni 8.85843315 8.87039021 3.68372382
Ni 6.93502275 7.03964628 7.08026448
Ni 7.09693048 8.93572879 8.60727266
Ni 8.67625789 7.26745567 8.87855002
Ni 9.05091709 8.71403151 7.05666401
Ni 7.05805468 7.14857271 10.56275169
Ni 6.97609570 8.69189411 12.33248941
Ni 8.75468623 7.20177461 12.59375374
Ni 8.73285893 8.67574429 10.71131991
Ni 7.07258529 6.83251587 14.20130875
Ni 7.29144862 8.82832862 15.93972886
Ni 8.65336227 6.89577107 15.99903269
Ni 8.82264904 8.73808608 14.24464462
Ni 7.14537593 10.36183060 0.00806966
Ni 6.98138199 12.23140715 1.70898120
Ni 8.67641607 10.46363788 1.94826401
Ni 8.64577052 12.37543334 0.14276791
Ni 7.00258255 10.55094616 3.65278173
Ni 6.84433923 12.33887350 5.28589520
Ni 8.80737409 10.57483085 5.31242071
Ni 8.65285475 12.23549706 3.44288417
Ni 6.99658143 10.58352150 7.00771946
Ni 7.28119212 12.06216515 8.85143658
Ni 8.99020708 10.44255674 8.77341344
Ni 8.77090345 12.19605439 6.99904543
Ni 7.03886940 10.36309689 10.61627059
Ni 7.01848688 12.41510706 12.45562497
Ni 8.70582222 10.46890223 12.61411736
Ni 8.93796515 12.17490172 10.64564957
Ni 7.08301151 10.66336673 14.31111250
Ni 7.11439631 12.41904593 16.11680186
Ni 8.98205974 10.53478547 15.95118802
Ni 8.88151397 12.40202486 14.26317928
Ni 7.18568113 14.24442621 17.48704618
Ni 7.02887416 15.89415067 1.70071313
Ni 8.85261669 14.09952122 1.86590779
Ni 8.87007894 15.89574085 17.39906796
Ni 6.77726815 14.03759396 3.58326508
Ni 7.03937903 15.77359429 5.16552439
Ni 8.75490144 13.97230640 5.17302352
Ni 8.67252005 15.79338076 3.60122826
Ni 6.97286325 14.02698744 7.11887768
Ni 7.01458629 15.85353362 8.90429972
Ni 8.80428084 13.95308517 8.67257138
Ni 8.61209942 15.72689156 7.04759540
Ni 7.06655035 14.02366304 10.64361401
Ni 7.15415191 15.93321039 12.35763488
Ni 8.66651601 14.02391288 12.21191825
Ni 8.82271966 15.87938822 10.38174438
Ni 7.14327709 14.02036064 14.10438750
Ni 6.99466717 15.82335037 15.64501452
Ni 8.88938617 13.99406452 15.87224066
Ni 8.76840619 15.74952515 14.21135574
Ni 10.82613758 17.58613222 17.38006851
Ni 10.46495661 1.63212805 1.69354814
Ni 12.42052989 17.39862951 1.67417337
Ni 12.43891108 1.69188907 17.48443318
Ni 10.44418914 0.06658117 3.48481487
Ni 10.43198469 1.82274714 5.29778235
Ni 12.35989472 0.01154175 5.15023228
Ni 12.42024575 1.84907359 3.52737264
Ni 10.48811207 0.07378329 7.04244598
Ni 10.67614215 1.80266422 8.92417280
Ni 12.17299144 0.03109653 8.82787245
Ni 12.28137403 1.68246348 7.16302270
Ni 10.35015802 17.59402977 10.34460028
Ni 10.60292198 1.89964710 12.07031247
Ni 12.08785780 17.53102189 12.30245632
Ni 12.44677587 1.70621662 10.63603346
Ni 10.45171088 17.41599441 14.07114501
Ni 10.41980778 1.80081992 15.96144615
Ni 12.40348504 0.02575719 15.81121606
Ni 12.09560357 1.72486143 14.00432185
Ni 10.71515689 3.83235973 17.56412374
Ni 10.60926634 5.04713336 1.87955967
Ni 12.54485233 3.60298961 1.57620107
Ni 12.45445426 5.44562890 0.04882090
Ni 10.56574795 3.36756702 3.43388638
Ni 10.44360600 5.23241273 4.75621832
Ni 12.00995444 3.60966939 5.44214539
Ni 12.40636296 5.31680488 3.84807104
Ni 10.32432948 3.47169919 7.24665049
Ni 10.62460010 5.57974874 8.80928923
Ni 12.24961567 3.65177516 8.70803591
Ni 12.43026292 5.40888665 7.09396192
Ni 10.56214794 3.52029694 10.41844287
Ni 10.53963282 5.36118702 12.41067269
Ni 12.41469443 3.57980245 12.37766495
Ni 12.42915898 5.37559488 10.85572494
Ni 10.51420594 3.60115016 14.20310148
Ni 10.47223340 5.50958015 15.59877418
Ni 12.22986588 3.69805170 15.75161475
Ni 12.26042424 5.10162030 13.96929375
Ni 10.54702424 6.98351506 0.14128978
Ni 10.31870393 8.77955548 1.80249338
Ni 12.17169775 7.20329481 1.84176699
Ni 12.33525765 8.50371173 17.52304362
Ni 10.59112530 7.18782165 3.54513083
Ni 10.52075534 8.78665839 5.36728440
Ni 12.36720810 7.07120907 5.33976715
Ni 12.48507269 8.78492228 3.71257550
Ni 10.43471343 6.82465177 6.69810907
Ni 10.72749519 8.64120029 8.91269403
Ni 12.25950543 7.04998175 8.67286845
Ni 12.37889313 8.83037873 7.23352111
Ni 10.50407982 6.94486237 10.75331353
Ni 10.58610851 9.00566400 12.40472546
Ni 12.45151398 7.07416269 12.34837545
Ni 12.28694461 8.70420667 10.63925319
Ni 10.48385421 7.09544494 13.94821636
Ni 10.63837766 8.72982311 15.81643088
Ni 12.30495578 6.82951168 15.45126218
Ni 12.34744548 8.87888192 14.18404026
Ni 10.62465918 10.50196163 0.01261562
Ni 10.71092715 12.17497210 1.86032000
Ni 12.19301898 10.42656495 1.80743571
Ni 12.29903568 12.16380091 0.19740679
Ni 10.78852878 10.41051197 3.69581849
Ni 10.53588531 12.18699979 5.01692973
Ni 12.59522199 10.50229375 5.39196822
Ni 12.47847757 12.34520824 3.44664223
Ni 10.61503090 10.62553147 6.95193234
Ni 10.45374952 12.42956080 8.75818501
Ni 12.10467177 10.82803522 8.76254049
Ni 12.05688681 12.48869088 6.90812312
Ni 10.68460873 10.60007635 10.50313870
Ni 10.42565784 12.37180999 12.39735770
Ni 12.35969818 10.56611492 12.29967176
Ni 12.48149686 12.19434361 10.53232554
Ni 10.47034519 10.65351923 14.21758224
Ni 10.52071484 12.32297773 16.09296030
Ni 12.18230168 10.50360206 15.94397902
Ni 12.20381450 12.43917290 14.00825013
Ni 10.61211536 13.95506142 0.15322865
Ni 10.52094763 15.85955454 1.75495998
Ni 12.37469887 14.02476823 1.77959964
Ni 12.48715687 15.74314245 17.45334489
Ni 10.53130758 14.02612260 3.47108373
Ni 10.57800342 15.81072207 5.12076191
Ni 12.14815603 13.99547626 5.06210400
Ni 12.20987739 16.03907259 3.41965233
Ni 10.41458520 14.07684436 6.99599039
Ni 10.60133064 15.86760613 8.78792621
Ni 12.34543518 14.26216682 8.73805161
Ni 12.17470204 15.80940582 6.81040941
Ni 10.52021566 14.04744352 10.50295091
Ni 10.36156201 15.91212079 12.14417068
Ni 12.27444582 14.18881863 12.14913237
Ni 12.26990014 15.89808843 10.49542898
Ni 10.65304997 14.16712187 13.95268711
Ni 10.63362452 15.78381316 15.89177973
Ni 12.47191551 13.84922634 15.67892372
Ni 12.32972102 15.75142599 13.97601080
Ni 14.34374089 0.08552554 0.01094221
Ni 14.14312287 1.88579065 1.74616921
Ni 15.83544823 0.08249801 1.74823599
Ni 16.10038732 1.85462943 17.56164548
Ni 14.15730204 0.06007332 3.49044088
Ni 13.88752770 1.83148389 5.35196572
Ni 15.71537412 0.07667474 5.29055980
Ni 15.71362136 1.87318149 3.50439342
Ni 13.93780840 17.55632495 7.02501197
Ni 14.22059643 1.96099335 8.82334745
Ni 15.81661041 0.28241135 8.72251267
Ni 15.79226466 1.80998244 6.90491461
Ni 13.93354333 17.50343259 10.33719363
Ni 13.97330846 1.53460674 12.49013027
Ni 15.89097449 0.13386170 12.24119106
Ni 15.54309172 1.75817908 10.47641517
Ni 14.04052564 17.44342633 14.19711480
Ni 14.30741715 1.81622390 15.88352354
Ni 15.94699654 0.16092138 15.85338389
Ni 15.80540475 1.77129526 14.10050977
Ni 14.19039134 3.48745151 17.44791505
Ni 14.16493338 5.34499475 1.68218398
Ni 15.73533248 3.56994893 1.82791933
Ni 15.99228166 4.95697412 17.48549296
Ni 13.97250954 3.51944176 3.79547484
Ni 14.36058436 5.39800610 5.16367575
Ni 15.97302675 3.45805756 5.18063385
Ni 15.74367313 5.37896342 3.38857247
Ni 14.00109898 3.65875421 7.23339168
Ni 14.13752843 5.52772341 8.94611761
Ni 15.93232344 3.49277238 8.73686923
Ni 15.94364385 5.34793759 7.04760599
Ni 14.25686436 3.65358501 10.53087305
Ni 14.11948928 5.26294023 12.53586735
Ni 15.73817334 3.38332579 12.25453317
Ni 15.99099833 5.13423852 10.58904171
Ni 13.91689652 3.37976457 14.14177313
Ni 14.07782950 5.41643156 15.68446916
Ni 16.01867385 3.38376669 15.68932921
Ni 15.83724879 5.17973915 14.06314979
Ni 14.25477956 6.83336620 17.55140229
Ni 14.27757301 8.78645311 1.79003249
Ni 15.99078172 7.08405874 1.61963012
Ni 16.02678378 8.73319224 17.44364965
Ni 13.98066929 7.05503941 3.50374895
Ni 14.33850267 8.73511081 5.19919784
Ni 16.00210840 7.12146219 5.30174039
Ni 16.16388294 8.95053899 3.36813425
Ni 14.00752196 6.96677464 7.10861055
Ni 14.07526579 8.59610864 8.88297554
Ni 15.91980343 7.03741428 9.04564832
Ni 16.03910188 8.65845400 6.91642349
Ni 14.18455733 6.85019356 10.81284924
Ni 13.99094037 8.95808863 12.19571820
Ni 15.94388891 7.27521410 12.39772943
Ni 15.89160540 8.70504989 10.49191578
Ni 14.16410183 7.28940307 14.13786156
Ni 14.08457557 8.85513483 15.93729773
Ni 15.86906122 6.95031900 15.79063154
Ni 15.87670530 8.89421982 14.13510913
Ni 14.11978569 10.42790820 0.22070843
Ni 14.25950629 12.16461777 1.78246823
Ni 15.97650559 10.70449769 1.86687387
Ni 15.96812518 12.64074935 0.19372101
Ni 14.54827196 10.54891105 3.74832073
Ni 14.05132409 12.31161368 5.24643302
Ni 15.80053627 10.41089695 5.57401107
Ni 16.07881087 12.36886408 3.64781998
Ni 13.90254475 10.67458595 7.19279078
Ni 13.96686643 12.46023605 8.64048846
Ni 15.96109963 10.54104610 8.50095123
Ni 15.93605556 12.38509764 6.78322100
Ni 14.35545789 10.59727080 10.22659197
Ni 14.14661035 12.20328744 12.20155973
Ni 15.93243373 10.50851190 12.15974101
Ni 15.72675332 12.41037253 10.42217323
Ni 14.02353046 10.51082010 14.12234797
Ni 13.94464648 12.13865988 16.13185155
Ni 15.90038869 10.68515975 15.93292117
Ni 15.79594208 12.28837295 13.87324974
Ni 13.95034270 14.05680416 17.47747592
Ni 14.17337269 15.87767882 1.64179563
Ni 15.84637760 13.98376133 1.97029025
Ni 15.81686966 16.04398387 17.59193034
Ni 14.10068819 14.20092270 3.41273077
Ni 14.01968806 15.72504578 5.22826744
Ni 15.97092087 14.06655999 5.20495784
Ni 15.80883084 15.89621414 3.61173308
Ni 13.87763721 14.05243903 6.92785419
Ni 14.03489152 15.79129556 8.77206059
Ni 15.86555344 14.08318185 8.69457285
Ni 15.76511177 15.86712408 7.02742887
Ni 14.14888744 14.16557300 10.54944170
Ni 14.09949524 16.05982683 12.23227341
Ni 15.69610615 14.03811996 12.29303678
Ni 15.84479891 15.93126797 10.44021146
Ni 14.14031208 13.96846074 14.03999307
Ni 14.12274008 15.88074168 15.94428597
Ni 15.77746832 14.14014431 15.90746327
Ni 15.98425981 15.93320144 13.85417921
