500
Final configuration Lattice="20.45000000 0 0  0 20.45000000 0  0 0 20.45000000" Properties=species:S:1:pos:R:3
Ag 20.43540123 20.37692311 20.43460153
Ag 20.38656163 1.99417598 2.08549030
Ag 2.11877951 0.00925761 2.02402688
Ag 2.10709129 2.00113511 20.44322551
Ag 20.41395368 20.40903152 4.13789110
Ag 0.03504968 1.96314143 6.13985857
Ag 2.13073915 20.40343865 6.15061292
Ag 2.01396431 1.94337274 4.10387900
Ag 0.00455900 20.33966222 8.13535015
Ag 0.05745485 1.94274752 10.15897423
Ag 1.98960704 20.31045742 10.15162972
Ag 2.13581867 1.88654057 8.22481455
Ag 20.39899382 20.43506205 12.34281415
Ag 0.01325296 2.08005099 14.31708770
Ag 1.98994040 20.44271435 14.39642886
Ag 1.93052582 2.07584985 12.28804281
Ag 0.01182110 20.36156652 16.38148515
Ag 0.00643977 2.10540677 18.47043134
Ag 2.07010999 20.41661413 18.47820669
Ag 2.04659462 2.00742206 16.45108368
Ag 0.00256426 4.16565490 20.44550265
Ag 0.14532409 6.12654325 2.19507017
Ag 2.06558436 3.99671803 2.05066833
Ag 2.06166464 6.15461765 0.03687184
Ag 20.38984101 4.10291066 4.15595395
Ag 20.41424768 6.10822741 6.10998283
Ag 1.99784286 4.08168716 6.17036161
Ag 2.03146508 6.06551745 4.13217906
Ag 0.03316164 4.01690928 8.21677377
Ag 20.40997767 5.93854799 10.25086624
Ag 2.15572790 4.15432183 10.22928414
Ag 2.08924134 6.11864466 8.16119471
Ag 20.34471479 3.97940924 12.30482090
Ag 0.01115847 6.13253798 14.34224379
Ag 2.03123688 3.99769483 14.39166368
Ag 2.01896332 6.01906157 12.35124472
Ag 0.00371360 4.11858694 16.37584077
Ag 20.44375246 6.17789283 18.29949263
Ag 2.03507517 4.08895414 18.37940775
Ag 2.05254702 6.19830327 16.30081269
Ag 0.09143265 8.15032602 0.02792300
Ag 0.03818758 10.17494062 2.05431036
Ag 2.03192485 8.20347838 2.15977640
Ag 2.03642067 10.21402161 0.07711467
Ag 20.43619289 8.19767713 4.17468613
Ag 20.44114872 10.19669134 6.19690680
Ag 2.09193945 8.17058794 6.17078261
Ag 2.02923997 10.21837759 4.13089201
Ag 0.05551143 8.11281961 8.17336535
Ag 20.31459636 10.25310501 10.20657990
Ag 1.97995028 8.18653262 10.22772806
Ag 1.99237832 10.26559300 8.23490950
Ag 0.06539980 8.10480140 12.30215166
Ag 20.37147937 10.27255448 14.25858954
Ag 2.02792574 8.19354062 14.30777329
Ag 1.96755160 10.18138228 12.23916344
Ag 0.02759288 8.21448480 16.43047673
Ag 0.09407052 10.16880597 18.46414829
Ag 2.14328365 8.22411074 18.40835218
Ag 2.01575271 10.31850029 16.26756981
Ag 20.38182983 12.22086981 20.43795251
Ag 0.00992569 14.32257355 2.05922810
Ag 2.07176064 12.18888935 2.02108170
Ag 1.96903033 14.18981371 0.05167308
Ag 20.44463543 12.11592608 4.01658981
Ag 20.44582816 14.30226478 6.02202687
Ag 2.07162796 12.26323578 6.18459750
Ag 1.96667355 14.34052421 4.04169436
Ag 20.35782552 12.28947534 8.18797778
Ag 20.38160066 14.40699318 10.25302326
Ag 1.95878869 12.27300494 10.18517667
Ag 1.99516336 14.30284618 8.15985236
Ag 20.31983284 12.27131087 12.21438663
Ag 0.04841184 14.32641424 14.28052474
Ag 1.95695843 12.22053438 14.22503189
Ag 2.15971765 14.36106073 12.20686837
Ag 0.03747267 12.23343323 16.43681315
Ag 0.02016958 14.33350826 18.44760202
Ag 2.04998938 12.29916319 18.45430068
Ag 2.10720474 14.34624179 16.34632189
Ag 0.06066777 16.48181921 20.44427110
Ag 0.03321589 18.47418557 2.04288884
Ag 2.00740365 16.34703502 1.98412287
Ag 2.13701450 18.39620587 0.05983081
Ag 20.33158137 16.43803217 4.03419621
Ag 20.43514171 18.34951732 6.13579841
Ag 1.94930786 16.20751533 6.04436587
Ag 2.00074573 18.32716702 4.11278679
Ag 20.44743574 16.34462653 8.07265434
Ag 20.37445949 18.38996873 10.22418200
Ag 2.05665900 16.32752011 10.19413922
Ag 2.05846810 18.29081232 8.16707266
Ag 0.04412836 16.38266031 12.29358673
Ag 20.42765960 18.31700999 14.37509537
Ag 2.04855985 16.32123733 14.31181181
Ag 1.93004378 18.35818285 12.19005153
Ag 0.09628511 16.35102655 16.43611264
Ag 0.09581497 18.38171082 18.42680162
Ag 2.14208863 16.22480892 18.47271125
Ag 2.05010527 18.35440033 16.37132653
Ag 4.24662282 0.05984712 0.06362936
Ag 4.10732445 1.99278325 2.04857158
Ag 6.20895679 20.39813786 2.06028883
Ag 6.12983446 2.09355248 20.42715210
Ag 4.01114659 20.44827874 4.12814853
Ag 4.02085770 2.13465333 6.14662272
Ag 6.00692322 0.01944930 6.16383565
Ag 6.16030894 2.02163419 4.11468949
Ag 4.06316008 20.38520650 8.23747359
Ag 4.14427348 2.06649118 10.31738523
Ag 6.15454015 20.44129785 10.30471481
Ag 6.19508816 2.02731506 8.19869205
Ag 3.96466801 20.37179167 12.23699091
Ag 4.03467552 2.03515448 14.41178758
Ag 6.10979810 20.44548367 14.39834391
Ag 6.02055098 2.04876018 12.33606765
Ag 4.07190375 20.42268533 16.36126400
Ag 4.20752168 2.04486551 18.43854765
Ag 6.09237946 0.05740236 18.41275701
Ag 6.21292323 2.10064294 16.39987152
Ag 4.21677972 4.07920548 20.39308843
Ag 4.04367081 6.09704110 2.04199177
Ag 6.11081902 4.09755987 1.97766165
Ag 6.09611563 6.20893395 0.04032118
Ag 4.17558559 4.02297996 4.05695613
Ag 4.15640700 6.23046460 6.06301827
Ag 6.20064624 4.07361068 6.13563471
Ag 6.24131456 6.16699601 4.10227607
Ag 4.15391933 4.11615990 8.12163803
Ag 4.10594494 6.20954785 10.21991876
Ag 6.15943894 4.08955284 10.24402667
Ag 6.30011118 6.19225324 8.12057195
Ag 4.13643461 4.04953707 12.37175180
Ag 4.06419904 6.16318840 14.29990868
Ag 6.16310131 4.13318115 14.42170211
Ag 6.11211996 6.14801042 12.15694795
Ag 4.02848279 4.06898418 16.33947336
Ag 4.17234677 6.10402269 18.49037204
Ag 6.25562191 4.12696419 18.47996793
Ag 6.12192097 6.23418899 16.38834724
Ag 4.12765461 8.19320375 0.03184541
Ag 4.10690987 10.18526558 2.00629306
Ag 6.13938345 8.17638708 2.04740528
Ag 6.17274704 10.21211271 0.01891960
Ag 4.06727568 8.14264659 4.06156513
Ag 4.18085559 10.20604833 6.09822758
Ag 6.15977938 8.23495219 6.15098843
Ag 6.13815795 10.24565672 3.98189349
Ag 4.10178340 8.18915518 8.20571634
Ag 4.14001159 10.22078232 10.22512800
Ag 6.16083542 8.18088077 10.14989945
Ag 6.18074665 10.26711772 8.25614704
Ag 4.10268455 8.22516923 12.20300799
Ag 4.04365134 10.20610501 14.15583084
Ag 6.04105243 8.13469868 14.16122306
Ag 6.16467324 10.27460218 12.32928649
Ag 4.12311552 8.31628099 16.27743893
Ag 4.07134171 10.24043918 18.44190083
Ag 6.11998648 8.33419193 18.42577631
Ag 6.16737542 10.26714092 16.30367269
Ag 4.06004035 12.13360625 20.43876407
Ag 4.18711626 14.32474354 2.06415695
Ag 6.14148875 12.19176638 2.05490605
Ag 6.12526902 14.40853245 0.08216094
Ag 4.16937597 12.33936088 4.12155549
Ag 4.05640771 14.29223035 6.10450178
Ag 6.17983983 12.23632794 6.17430519
Ag 6.13256221 14.36460200 4.10252591
Ag 4.01982566 12.19944931 8.21796515
Ag 4.14341643 14.26136272 10.22410258
Ag 6.14991408 12.30004106 10.11579329
Ag 6.09688497 14.26288983 8.05994911
Ag 4.11379737 12.22893123 12.13816395
Ag 4.01616267 14.15946086 14.21505741
Ag 6.07919530 12.28486281 14.41685387
Ag 6.04332606 14.26724823 12.29809290
Ag 4.10417213 12.21627174 16.43047691
Ag 4.11857151 14.18928349 18.49605471
Ag 6.16360201 12.24542085 18.49488594
Ag 6.08097268 14.33564777 16.44046724
Ag 4.20322100 16.28208118 0.09417623
Ag 4.07485119 18.48588273 2.21424154
Ag 6.18640182 16.56404722 2.19564030
Ag 6.11837933 18.41145373 0.11885379
Ag 4.07815741 16.39165982 4.06537206
Ag 4.04448343 18.31635355 6.12452687
Ag 6.17006652 16.30979486 6.00183477
Ag 6.18943828 18.50470004 4.18112450
Ag 4.08386906 16.34927884 8.00264287
Ag 4.11349994 18.30234588 10.12872441
Ag 6.14414137 16.36859569 10.13731995
Ag 6.20006778 18.35756045 8.11131173
Ag 4.10389959 16.37344133 12.31894015
Ag 4.08211721 18.37408262 14.22223914
Ag 6.08685931 16.26022057 14.28321462
Ag 6.05631094 18.34397907 12.21551988
Ag 4.16078019 16.28849042 16.34055686
Ag 4.06337027 18.31320666 18.43501402
Ag 6.08866796 16.39431899 18.37794741
Ag 6.14479223 18.33329480 16.30132050
Ag 8.27022718 0.03844918 20.39831280
Ag 8.15296676 2.10214764 2.05942569
Ag 10.23560006 0.17506070 2.07364844
Ag 10.20304648 2.10895394 20.38354177
Ag 8.21983627 0.03968735 4.15800503
Ag 8.17840482 1.99615498 6.06564229
Ag 10.31489483 20.38283140 6.17201412
Ag 10.29536996 2.00157733 4.05707331
Ag 8.14294244 20.40359340 8.21552964
Ag 8.22998238 2.11460018 10.25027107
Ag 10.28549378 20.43011809 10.30307738
Ag 10.20221180 2.07318506 8.15804200
Ag 8.13537528 20.42522920 12.33506870
Ag 8.18513306 2.06202113 14.35088884
Ag 10.31132765 0.03864310 14.31862749
Ag 10.16285084 2.10945273 12.33608923
Ag 8.23711543 20.44483198 16.32460092
Ag 8.20854717 2.17874460 18.44211183
Ag 10.18075667 0.09172299 18.26961620
Ag 10.27010066 2.11129656 16.29805258
Ag 8.23617607 4.12365899 0.00623243
Ag 8.14783231 6.06670572 1.98021635
Ag 10.25131857 4.13244926 2.00592948
Ag 10.17684668 6.08061310 0.00400688
Ag 8.21003066 4.09774369 4.03815757
Ag 8.20300873 6.15902871 6.04449691
Ag 10.19842596 4.09943503 6.22148788
Ag 10.22199574 6.16808866 4.05786574
Ag 8.23234234 4.11521879 8.21559819
Ag 8.21013989 6.15026469 10.27380756
Ag 10.18186889 4.06655541 10.25101936
Ag 10.24223269 6.17264915 8.15017869
Ag 8.13231219 4.03852198 12.29410052
Ag 8.22440154 6.18209402 14.33152021
Ag 10.25853348 4.11253156 14.29567576
Ag 10.24449462 6.20080496 12.31740962
Ag 8.21694024 4.16130776 16.41134146
Ag 8.14260591 6.24051847 18.43559776
Ag 10.19856246 4.15299474 18.38304603
Ag 10.11649824 6.22870427 16.35823659
Ag 8.16533862 8.14424313 20.35721101
Ag 8.18975666 10.21986084 2.03978104
Ag 10.20666518 8.22809822 2.00578407
Ag 10.18283943 10.28840197 20.43661469
Ag 8.25324226 8.22799736 4.12481581
Ag 8.27719040 10.24018582 6.22651089
Ag 10.32699513 8.07180259 6.05044168
Ag 10.22847502 10.29062225 4.08804945
Ag 8.21853122 8.14727119 8.25609902
Ag 8.29055973 10.33047632 10.14735748
Ag 10.26954222 8.26512487 10.29487965
Ag 10.28665211 10.29488962 8.15923362
Ag 8.16914832 8.19863241 12.25727956
Ag 8.09093807 10.38695642 14.29407629
Ag 10.16733932 8.31166473 14.32487677
Ag 10.19073927 10.29102917 12.31608942
Ag 8.19996732 8.20796472 16.29928816
Ag 8.20489716 10.20477222 18.38834038
Ag 10.28112276 8.09681746 18.47911457
Ag 10.18716839 10.31903572 16.39585339
Ag 8.27192352 12.21437822 20.42352778
Ag 8.26126084 14.18658111 2.01437600
Ag 10.27119177 12.27207978 2.08603115
Ag 10.11155902 14.35271401 20.42883219
Ag 8.15005195 12.22044320 4.14761659
Ag 8.21033685 14.28445649 6.07703858
Ag 10.25978125 12.25094409 6.09141247
Ag 10.24407242 14.19673258 4.02915482
Ag 8.27468513 12.33850143 8.16986986
Ag 8.18498229 14.24610080 10.18157355
Ag 10.30363822 12.34239252 10.27901262
Ag 10.37166001 14.25846008 8.17099210
Ag 8.12170007 12.29517842 12.27209444
Ag 8.17768886 14.32583492 14.24594512
Ag 10.18563579 12.33169779 14.31726965
Ag 10.21179857 14.30994033 12.27039170
Ag 8.13897636 12.33748988 16.40837716
Ag 8.27373182 14.44009818 18.47683734
Ag 10.19162371 12.28553756 18.42462057
Ag 10.21522916 14.29063438 16.34593421
Ag 8.15598935 16.36572855 0.05067202
Ag 8.20242649 18.42918832 2.04815559
Ag 10.14204925 16.38303359 1.97215082
Ag 10.13233796 18.41951635 0.09658261
Ag 8.25421677 16.28572814 4.11178671
Ag 8.17024412 18.21815805 6.20643949
Ag 10.17266449 16.29131656 6.13050267
Ag 10.22123314 18.42237071 4.11532663
Ag 8.23089525 16.30653923 8.20821357
Ag 8.06659137 18.39390965 10.16105850
Ag 10.15725457 16.23075504 10.17362440
Ag 10.20505404 18.41144998 8.25366263
Ag 8.05459645 16.34394595 12.17638187
Ag 8.08894313 18.32914658 14.22238988
Ag 10.22868452 16.23998691 14.33224943
Ag 10.14270702 18.25039842 12.21519827
Ag 8.08370528 16.34609688 16.28241214
Ag 8.13165246 18.35863423 18.37653528
Ag 10.30827160 16.29322833 18.34509364
Ag 10.17842063 18.32338816 16.30854883
Ag 12.22697655 0.00157833 0.07820265
Ag 12.36526076 2.15114368 1.92049572
Ag 14.33660645 20.44885691 2.23187194
Ag 14.29775674 2.08466474 20.29751250
Ag 12.32647752 0.00114309 4.14135857
Ag 12.20859660 2.08499288 6.19462302
Ag 14.25673624 0.08560781 6.23738586
Ag 14.35121580 2.04592936 4.13344314
Ag 12.24566227 0.00205312 8.31244946
Ag 12.25727490 2.03798582 10.35271354
Ag 14.31772437 0.01204484 10.26850681
Ag 14.30453724 2.04612569 8.28579704
Ag 12.35316953 0.05749392 12.27303199
Ag 12.28627013 2.17118121 14.23877659
Ag 14.30214633 0.04393576 14.39324209
Ag 14.36038224 2.18869859 12.27711977
Ag 12.23686106 20.42263382 16.32804172
Ag 12.17323156 2.04206835 18.34960852
Ag 14.29018532 0.00380332 18.46074008
Ag 14.24166223 2.10260423 16.43798360
Ag 12.32453663 4.07449932 20.29749392
Ag 12.22317187 6.05819437 2.05556811
Ag 14.37321476 4.12992661 1.99770728
Ag 14.36773921 6.17556705 0.02711471
Ag 12.22469874 4.05076565 4.13706848
Ag 12.23570620 6.01307938 6.03394301
Ag 14.31089442 4.03008888 6.14153042
Ag 14.38225908 6.12916060 4.06374922
Ag 12.30297867 4.01975127 8.23289966
Ag 12.23326970 6.17987675 10.13533815
Ag 14.27721154 4.13446545 10.17417120
Ag 14.31439533 6.23061403 8.09015865
Ag 12.24299563 4.18248884 12.30406695
Ag 12.31937792 6.23034775 14.37649819
Ag 14.38737185 4.13204345 14.30255158
Ag 14.28826332 6.09007110 12.27663126
Ag 12.35582369 4.14903955 16.31081449
Ag 12.33924343 6.18356275 18.38915350
Ag 14.34026171 4.14967710 18.41904440
Ag 14.40764666 6.25009325 16.37116123
Ag 12.30477463 8.21633268 20.41725463
Ag 12.28497971 10.26416950 1.98386372
Ag 14.30364249 8.13236700 2.09113562
Ag 14.23620523 10.28414905 20.36757097
Ag 12.31333459 8.16654842 4.04947831
Ag 12.29905587 10.32625244 6.05689642
Ag 14.27802975 8.23588743 6.19674612
Ag 14.22078173 10.15171082 4.04940924
Ag 12.17997928 8.18087408 8.11877118
Ag 12.35102816 10.11355102 10.24762343
Ag 14.30276814 8.23707478 10.21659000
Ag 14.29090923 10.20154924 8.14083534
Ag 12.15181909 8.15149989 12.36519116
Ag 12.24965634 10.30932820 14.28463053
Ag 14.30713409 8.22058090 14.23033051
Ag 14.41870523 10.26866474 12.17164122
Ag 12.19832768 8.19641529 16.35786121
Ag 12.26113921 10.29973495 18.40485540
Ag 14.37924723 8.23189992 18.43757959
Ag 14.23028281 10.27351538 16.42100946
Ag 12.34474492 12.32488232 20.42424020
Ag 12.27069941 14.46981532 2.01935119
Ag 14.28952588 12.27658370 1.99385933
Ag 14.31187612 14.33137064 20.42855929
Ag 12.29400416 12.35664198 4.02218950
Ag 12.29386024 14.29369546 6.17359336
Ag 14.31898852 12.21960159 6.12824756
Ag 14.19355438 14.30797656 4.08830675
Ag 12.29995543 12.31263366 8.24156735
Ag 12.25828432 14.36821448 10.25744087
Ag 14.31572729 12.33259411 10.13799812
Ag 14.30296931 14.34420687 8.11730593
Ag 12.26421677 12.37024983 12.25040668
Ag 12.20743185 14.25964579 14.24951315
Ag 14.32264635 12.29232140 14.33392841
Ag 14.38385058 14.29507255 12.23232815
Ag 12.18902726 12.29588063 16.37349449
Ag 12.28675539 14.28271456 18.48601280
Ag 14.26671329 12.23914440 18.34741860
Ag 14.28504263 14.27854870 16.40587285
Ag 12.15073810 16.36659038 20.44599312
Ag 12.20556233 18.34868316 2.22402612
Ag 14.27526874 16.32662643 2.01281300
Ag 14.15424878 18.46173225 0.04258068
Ag 12.19699917 16.24648892 4.14120767
Ag 12.16299274 18.33973124 6.24833065
Ag 14.18163827 16.43530652 6.18087699
Ag 14.23174982 18.36068285 4.30621003
Ag 12.20269129 16.36922639 8.19953157
Ag 12.30960444 18.36357369 10.29643556
Ag 14.27245994 16.39793602 10.29409692
Ag 14.26117651 18.37864293 8.29712902
Ag 12.24618619 16.32996326 12.30425568
Ag 12.28236923 18.39448177 14.23774439
Ag 14.31167502 16.31867631 14.25394606
Ag 14.35023421 18.36624253 12.32013347
Ag 12.34664563 16.27487606 16.21635161
Ag 12.14163994 18.38539655 18.32244729
Ag 14.16706822 16.45495719 18.31560114
Ag 14.31958602 18.48834150 16.24393257
Ag 16.27188055 0.00530381 0.08648133
Ag 16.30523314 2.09014960 2.12728786
Ag 18.34903497 20.42744846 1.99358143
Ag 18.29509620 2.11919916 0.04559012
Ag 16.36902349 20.44605108 4.26465374
Ag 16.39174314 2.03205478 6.17781444
Ag 18.34365593 20.44371277 6.16562088
Ag 18.31628520 2.03184442 4.07674887
Ag 16.31018322 20.35995423 8.23953151
Ag 16.33632122 2.03297079 10.22553655
Ag 18.41623380 20.38966735 10.28536386
Ag 18.49034195 1.97967979 8.19277420
Ag 16.31366136 20.40617432 12.31778911
Ag 16.42591165 2.15480576 14.35109315
Ag 18.41941720 0.01551766 14.30752231
Ag 18.26989741 2.00293738 12.26023555
Ag 16.36206681 0.03799455 16.38121601
Ag 16.25824146 2.00060572 18.37330904
Ag 18.41580389 0.09067089 18.50199830
Ag 18.49230441 1.94371690 16.45023143
Ag 16.37581126 4.14715610 20.38769545
Ag 16.44454676 6.18073349 2.02870926
Ag 18.39188896 4.18905701 1.95139359
Ag 18.46897600 6.19618785 0.01079500
Ag 16.36644823 4.12015284 4.11939630
Ag 16.37039538 6.04576762 6.22478733
Ag 18.38016672 4.02055035 6.13308954
Ag 18.42174293 6.15402782 4.17211625
Ag 16.34731143 3.97400982 8.27141955
Ag 16.26565879 6.19400980 10.31284483
Ag 18.36763319 3.96655906 10.28155911
Ag 18.48337668 6.08515915 8.16500567
Ag 16.38179619 4.11885041 12.23007682
Ag 16.37419401 6.12890434 14.35184375
Ag 18.40516699 4.14877466 14.34529497
Ag 18.32494808 6.11659521 12.30423580
Ag 16.42200065 4.01462324 16.37234603
Ag 16.46485752 6.25930523 18.46599831
Ag 18.35419487 4.03918028 18.35988235
Ag 18.27184061 6.15118995 16.33914324
Ag 16.32777396 8.30126858 0.11854249
Ag 16.28597719 10.21200057 1.97597528
Ag 18.53820300 8.25170571 1.95426331
Ag 18.35569724 10.20739707 0.00642600
Ag 16.42813939 8.22637838 4.03020655
Ag 16.34028706 10.10829748 6.09536639
Ag 18.33016586 8.18910802 6.20171699
Ag 18.31837054 10.30731976 4.03777883
Ag 16.40858836 8.13686568 8.26335884
Ag 16.43919984 10.21877550 10.17474823
Ag 18.44535144 8.20885585 10.22874633
Ag 18.32817449 10.26333989 8.00802780
Ag 16.41497030 8.24435863 12.46793893
Ag 16.36761166 10.19370036 14.32116371
Ag 18.51641560 8.17140325 14.38571878
Ag 18.42180030 10.22866659 12.30854151
Ag 16.39721096 8.26993748 16.33813145
Ag 16.40698908 10.25448151 18.41126624
Ag 18.41735721 8.18313580 18.47044090
Ag 18.41130885 10.26086230 16.35174111
Ag 16.38718841 12.22198556 0.08178979
Ag 16.33672811 14.40442872 1.98815538
Ag 18.45499650 12.26448490 1.94981201
Ag 18.53158052 14.40245224 20.36924095
Ag 16.25884625 12.34520457 4.05180512
Ag 16.24744903 14.38369298 6.13498188
Ag 18.44301053 12.26469018 6.00735799
Ag 18.35349836 14.28708854 3.95251166
Ag 16.38137199 12.19764612 8.28983850
Ag 16.37497313 14.34947676 10.15653762
Ag 18.42003955 12.24713348 10.33141117
Ag 18.36170119 14.32827816 8.22129908
Ag 16.37158278 12.31695282 12.23244632
Ag 16.39318148 14.25842024 14.27588087
Ag 18.43469709 12.33163442 14.38876966
Ag 18.43462559 14.36533539 12.25363538
Ag 16.38914228 12.28688578 16.42411777
Ag 16.30937934 14.40169584 18.46854351
Ag 18.48109766 12.25186357 18.41362690
Ag 18.30384844 14.44349881 16.31295639
Ag 16.21786755 16.47426239 0.02215276
Ag 16.20654476 18.43599907 2.17753726
Ag 18.41441486 16.49849578 1.88756399
Ag 18.35635277 18.44519979 20.30422758
Ag 16.30108432 16.41286559 4.04255286
Ag 16.25898365 18.35275035 6.18521520
Ag 18.33571144 16.18600986 6.11187306
Ag 18.34702868 18.42206176 4.19833542
Ag 16.34655241 16.33062021 8.27226785
Ag 16.42680903 18.34241134 10.24720063
Ag 18.40371954 16.36816489 10.21723601
Ag 18.31688327 18.32616493 8.18652218
Ag 16.42924816 16.24250721 12.27654748
Ag 16.44656806 18.55277415 14.26986422
Ag 18.38033311 16.38821057 14.30841383
Ag 18.40367489 18.36617751 12.29192178
Ag 16.30329804 16.41603272 16.32208461
Ag 16.16818528 18.38024904 18.29992957
Ag 18.30666243 16.42363435 18.40555306
Ag 18.41279313 18.42007833 16.43409784
