500
Final configuration Lattice="17.60000000 0 0  0 17.60000000 0  0 0 17.60000000" Properties=species:S:1:pos:R:3
Ni 17.58328035 0.03575031 0.05427256
Ni 17.58532243 1.79165860 1.66238573
Ni 1.65427180 0.10826689 1.81260124
Ni 1.73335349 1.75457122 0.01316852
Ni 17.46422660 0.17117025 3.57026251
Ni 0.10380288 1.94736643 5.26029833
Ni 1.81279918 0.09895493 5.12209963
Ni 1.69255475 1.99116952 3.40856402
Ni 0.23476220 17.50633013 6.91150749
Ni 0.21037224 1.79482079 8.73383472
Ni 1.90799351 17.42161862 8.82119848
Ni 1.73724458 1.69022066 7.03738369
Ni 0.03888987 0.04692216 10.37130784
Ni 17.47942426 1.58726893 12.15831916
Ni 1.64922079 0.05297981 12.40467159
Ni 1.74204220 1.89348207 10.62535047
Ni 0.04982777 0.15444308 14.10777427
Ni 0.16525581 1.72604649 15.98266112
Ni 1.91552335 17.50428416 15.93059989
Ni 1.81091472 1.78318404 14.14374091
Ni 17.56183760 3.62998508 17.28632464
Ni 0.12651610 5.33157492 1.90337948
Ni 1.62602000 3.62620972 1.47357124
Ni 1.72125974 5.30841039 17.47516285
Ni 0.11230202 3.73774445 3.70852802
Ni 17.42105210 5.32774910 5.40943080
Ni 2.00076509 3.57746345 5.29167331
Ni 1.77318366 5.34219728 3.80291850
Ni 0.20556857 3.69959296 7.19119218
Ni 0.01034000 5.25951252 8.84722711
Ni 1.86688947 3.50966717 8.90479294
Ni 1.91860167 5.39872886 7.03879146
Ni 0.07939414 3.33711849 10.66376661
Ni 0.11585955 5.15950877 12.19323407
Ni 1.67637314 3.51811009 12.35046587
Ni 1.77970266 5.14980313 10.43540270
Ni 17.50689754 3.62141585 14.12218569
Ni 17.26010091 5.32662367 15.69693051
Ni 1.83363724 3.77701454 15.65617373
Ni 1.82398243 5.49138049 13.91561717
Ni 0.00249562 6.93199332 17.58418881
Ni 17.51562651 9.09412896 1.59878657
Ni 1.86284413 7.08845052 1.73293365
Ni 1.58106606 8.68915985 17.53809189
Ni 0.11627303 6.96134365 3.56071409
Ni 0.15590416 8.80946108 5.23658828
Ni 1.70444318 7.21398432 5.42593275
Ni 1.54493775 8.66544201 3.49936855
Ni 0.13314063 6.99574385 7.18120878
Ni 17.56592263 8.89960863 8.74438011
Ni 1.90098974 7.05239375 8.74817802
Ni 1.78552714 9.00037403 7.14798690
Ni 0.08785270 7.02023681 10.50343463
Ni 17.57650965 8.80159662 12.34544246
Ni 1.81427947 7.00396142 12.07113110
Ni 1.70725494 8.76034799 10.65404577
Ni 17.55395767 6.75520022 13.96258547
Ni 17.54965749 8.80928121 15.68402217
Ni 1.66036493 6.97750297 15.67408283
Ni 1.81909976 8.67108141 13.94790670
Ni 17.44285644 10.40523892 0.01653939
Ni 17.46806041 12.13866572 1.72280000
Ni 1.58917601 10.55288468 1.91875849
Ni 1.52645327 12.34645937 0.09283406
Ni 17.39774908 10.68217788 3.66734329
Ni 17.50018569 12.15860361 5.31775321
Ni 1.63403136 10.70559796 5.36221529
Ni 1.79979509 12.48158609 3.57240305
Ni 17.49209792 10.48037751 7.02155570
Ni 17.57723405 12.10501356 8.74643344
Ni 1.90564154 10.58476641 8.76365273
Ni 1.85896862 12.30418107 7.10456496
Ni 17.49670504 10.51932705 10.75671432
Ni 0.21567701 12.32698666 12.23379763
Ni 1.86467021 10.50293208 12.49672541
Ni 1.71011581 12.11493351 10.53153542
Ni 17.55431616 10.61202003 14.12841957
Ni 17.37906819 12.39874966 15.94034479
Ni 1.59159272 10.47898689 16.04988395
Ni 1.61702156 12.17922123 14.12752731
Ni 17.55250256 13.98070298 0.09924202
Ni 17.44001114 16.05681639 1.77879384
Ni 1.60872420 14.14462066 1.63097659
Ni 1.47700850 15.79634018 17.55482320
Ni 17.55012770 13.84601067 3.75837839
Ni 17.48151059 16.05182328 5.30919441
Ni 1.72612743 14.03978653 5.32076632
Ni 1.53945521 15.76162557 3.55415424
Ni 0.14123765 13.82057555 7.18698026
Ni 0.04596785 15.65567064 8.69438924
Ni 1.77079621 13.87603134 8.96403959
Ni 1.71649778 15.71226495 7.02667698
Ni 0.02730989 14.09692513 10.47122647
Ni 17.59750438 15.93475344 12.11587188
Ni 1.69011230 13.99354452 12.45650856
Ni 1.82458320 15.76848166 10.50983109
Ni 17.54002727 14.01316198 14.07606014
Ni 17.44309309 15.84695527 15.77052192
Ni 1.64053364 14.01216648 15.88926123
Ni 1.82590637 15.85027787 14.31918360
Ni 3.36936965 0.01235559 0.13746991
Ni 3.54649621 1.67701159 1.90256118
Ni 5.23273016 17.38324972 1.97458351
Ni 5.21306093 1.62256233 0.08022572
Ni 3.53860130 17.39628738 3.55043605
Ni 3.60417402 1.82306182 5.33782917
Ni 5.17572887 0.05027611 5.47211065
Ni 5.32585840 1.82133567 3.49552593
Ni 3.43428893 0.09294388 7.02033753
Ni 3.52092697 1.74045581 8.81823782
Ni 5.28592825 17.53643650 8.86144549
Ni 5.26486816 1.84423838 7.20027491
Ni 3.44261865 0.01936887 10.71217140
Ni 3.46202629 1.81367838 12.32934622
Ni 5.08258850 0.01234927 12.51065026
Ni 5.20938632 1.65970633 10.51658137
Ni 3.66291621 17.55348793 14.29288655
Ni 3.39340074 1.81237926 15.96623397
Ni 5.13681944 17.58455692 15.96067652
Ni 5.18044435 1.86636415 14.25558054
Ni 3.41304708 3.41096236 17.54870863
Ni 3.66702401 5.28269657 1.59311105
Ni 5.07836799 3.45272632 1.64193301
Ni 5.00404911 5.17064975 17.48430268
Ni 3.63565620 3.57662692 3.38247616
Ni 3.77164789 5.09211788 5.20482094
Ni 5.43623668 3.33998621 5.22269314
Ni 5.13575853 5.37077173 3.24724509
Ni 3.72337560 3.63036987 7.01116134
Ni 3.65177432 5.14551197 8.99952880
Ni 5.29756280 3.40689990 8.86263237
Ni 5.43493326 5.13123352 7.09861150
Ni 3.74128341 3.40876611 10.68324927
Ni 3.57267977 5.27460571 12.27944698
Ni 5.43766025 3.53763825 12.37371623
Ni 5.36715517 5.29495389 10.67085840
Ni 3.43389530 3.61705925 14.07526031
Ni 3.49890144 5.51788309 15.65594468
Ni 4.95174976 3.57495507 15.72279808
Ni 5.41832890 5.47349798 13.95319681
Ni 3.62040292 7.02294123 0.10580882
Ni 3.41658943 9.00546457 1.73159048
Ni 5.50795326 7.02360557 1.56175611
Ni 5.18787544 8.73190640 0.04363119
Ni 3.47292031 7.15150187 3.31640372
Ni 3.31233248 8.81369050 5.37533890
Ni 5.16775870 7.11830980 5.17199628
Ni 5.38015516 8.73595092 3.52262682
Ni 3.77549302 7.13126902 7.06418300
Ni 3.50275273 8.84072196 8.77464507
Ni 5.37873908 7.03610557 8.79877745
Ni 5.52742098 8.71334434 6.93818473
Ni 3.53928321 6.94484493 10.48347899
Ni 3.60465990 8.72967640 12.17962956
Ni 5.41704485 7.01389275 12.34067436
Ni 5.26900383 8.63405895 10.42914456
Ni 3.54903008 7.19934219 13.93094229
Ni 3.36772093 8.73187469 15.62794566
Ni 5.31535249 7.10023267 15.76531331
Ni 5.36926146 8.69881176 14.07908986
Ni 3.22097066 10.63915182 0.32618631
Ni 3.60476107 12.41276543 1.82822856
Ni 5.26351686 10.47295155 1.84378125
Ni 5.20087275 12.29768838 0.13640711
Ni 3.62085145 10.87015363 3.58506952
Ni 3.59111223 12.44283707 5.27086800
Ni 5.18806519 10.47473831 5.28633152
Ni 5.46139331 12.27845518 3.47906559
Ni 3.41263396 10.65053073 7.05973592
Ni 3.82159495 12.19736736 8.84235310
Ni 5.40918520 10.50091209 8.73505847
Ni 5.32454387 12.16506855 6.97034851
Ni 3.65996896 10.42534051 10.48480520
Ni 3.46268023 12.25733557 12.10094066
Ni 5.46753308 10.25124419 12.31852713
Ni 5.25660784 12.15465874 10.76187844
Ni 3.37236609 10.54723802 14.17980927
Ni 3.55812003 12.33461680 15.87110085
Ni 5.26738344 10.55102301 16.11519811
Ni 5.25638831 11.95852884 13.92166117
Ni 3.27344395 13.91036084 0.04475088
Ni 3.41259615 15.86317903 1.72360244
Ni 5.25988143 14.34259298 1.88826480
Ni 5.26846883 15.98721584 0.23057285
Ni 3.56408052 14.11591210 3.45738921
Ni 3.61124446 15.85424643 5.47505577
Ni 5.34027606 14.04739613 5.49894357
Ni 5.21730378 15.68663621 3.71100601
Ni 3.44448028 14.02601956 7.14706002
Ni 3.67220542 15.84521321 8.63443791
Ni 5.12995957 14.16250935 8.86247044
Ni 5.43094114 15.93089186 7.00066721
Ni 3.55058749 13.96817775 10.48150728
Ni 3.53173494 15.77023681 12.30689786
Ni 5.12740101 14.10990378 12.18327642
Ni 5.16409039 15.83683511 10.54994609
Ni 3.42861044 14.01315623 13.97679070
Ni 3.44630405 15.84322876 16.17094478
Ni 5.10088835 14.06525336 15.84718093
Ni 5.08543856 15.74171946 13.97766750
Ni 7.21476066 0.04038093 17.58301446
Ni 6.87245176 1.73968306 1.73704731
Ni 8.85592963 0.05721078 1.89459320
Ni 8.76031672 1.79509533 17.57936957
Ni 6.92925908 0.13029737 3.50864317
Ni 7.04770341 1.71112261 5.24322621
Ni 8.80367507 17.59231257 5.24880569
Ni 8.59847739 1.92330794 3.58522390
Ni 7.23799355 0.03900277 7.17395286
Ni 7.19810243 1.82657241 8.78779417
Ni 9.00578257 0.05954400 8.78140224
Ni 8.91633039 1.74966288 6.92765005
Ni 7.02071542 0.05040953 10.49150738
Ni 6.94654236 1.67136811 12.34358069
Ni 8.49961548 17.54598060 12.32703652
Ni 8.80528029 1.71079654 10.61035717
Ni 6.82681967 17.47081854 14.09193519
Ni 6.81585497 1.74098677 15.87766157
Ni 8.65801700 0.11093351 15.82979508
Ni 8.63530406 1.74992098 14.13556878
Ni 6.98202149 3.32495745 0.07470247
Ni 7.00728611 5.09701935 1.76269336
Ni 8.88265191 3.47720054 1.57057024
Ni 8.99453616 5.15641231 17.49414664
Ni 6.91674160 3.45381211 3.26111444
Ni 6.79081271 5.35703104 5.19082964
Ni 8.75792248 3.57122740 5.45155007
Ni 8.75702550 5.12738711 3.41338244
Ni 7.27309614 3.68612546 7.27472673
Ni 6.97151321 5.27119092 8.79017131
Ni 8.95729181 3.49221743 8.92573995
Ni 8.90402685 5.38320820 6.94785199
Ni 7.28529099 3.65826973 10.58573611
Ni 7.02006064 5.36833712 12.33162960
Ni 8.75389751 3.47738704 12.40595216
Ni 8.75846179 5.44944836 10.43789798
Ni 7.07902067 3.51867043 14.12216881
Ni 6.92577920 5.09637888 16.12214609
Ni 8.69664686 3.44602021 15.87642719
Ni 8.74037901 5.30244260 14.27702295
Ni 7.12613041 7.09827412 17.39512515
Ni 6.90104929 8.88618377 1.93080796
Ni 8.73831434 6.95339715 1.84062025
Ni 8.93057758 8.68377028 17.58160771
Ni 6.96787992 6.99147784 3.48467288
Ni 7.12425279 8.66351396 5.10060693
Ni 8.93110032 6.92406189 5.08032130
Ni 8.92506023 8.75725951 3.33663413
Ni 7.04544580 6.87166701 6.96746411
Ni 7.16237125 8.76134289 8.57496829
Ni 8.73285176 7.02537239 8.72205533
Ni 8.85721389 8.86331306 6.82298893
Ni 7.08804572 7.03297543 10.45504823
Ni 7.23973392 8.72537652 12.28587652
Ni 8.84221157 7.10429811 12.44940122
Ni 8.72558282 8.59040885 10.33596049
Ni 7.16983723 6.91994818 14.10081100
Ni 7.10484525 8.88352647 15.71083079
Ni 8.85689047 7.12744448 15.80129707
Ni 8.98603360 9.02448339 14.08462790
Ni 7.06695061 10.38419935 0.12213909
Ni 7.05670376 12.33720102 1.76423207
Ni 8.87565908 10.55056001 1.73474524
Ni 8.73825035 12.40943241 17.54676555
Ni 7.09448880 10.66407680 3.59988989
Ni 7.16275476 12.27211985 5.28797927
Ni 8.83975426 10.57140643 5.27695631
Ni 8.79858106 12.34890462 3.51495270
Ni 6.97261260 10.59285241 6.79279448
Ni 6.84075322 12.29765049 9.01354227
Ni 8.79806994 10.42592878 8.71898591
Ni 8.74626109 12.42979020 7.08882387
Ni 7.03338837 10.30620598 10.44625423
Ni 7.08488674 12.12678470 12.23965176
Ni 8.98906239 10.53144288 12.03344273
Ni 8.86634981 12.31461160 10.58573417
Ni 7.04718192 10.48784451 14.02607115
Ni 6.97431972 12.13902447 15.92450264
Ni 8.68106797 10.65674745 15.90541295
Ni 8.75090418 12.39662404 14.02523563
Ni 6.73056321 14.12782209 17.54673871
Ni 7.17534647 15.82900204 1.62311384
Ni 8.60797367 14.11426727 1.84494327
Ni 8.83231679 15.96177455 17.58745984
Ni 7.03443681 14.08376047 3.68672710
Ni 7.05067518 15.87340778 5.21524192
Ni 8.84184864 14.05788989 5.31027989
Ni 8.77971186 15.79235860 3.59204080
Ni 7.04464650 14.06031005 7.04886871
Ni 6.83644358 15.76447090 8.68676960
Ni 8.68793167 14.18722818 8.97775143
Ni 8.87658329 15.78033668 7.04576820
Ni 6.77869332 14.10581361 10.51063685
Ni 6.79976009 15.97559410 12.32519702
Ni 8.61285948 14.04872586 12.45428471
Ni 8.55156712 15.88733387 10.71075187
Ni 6.93143812 14.08209225 14.01483182
Ni 7.01110323 15.84159807 15.86289843
Ni 8.65669693 14.09030499 15.73547824
Ni 8.69155566 15.86783121 14.01427037
Ni 10.38545672 0.16466256 0.14452272
Ni 10.46757775 1.80961999 1.70206462
Ni 12.49727368 0.09018669 1.98428150
Ni 12.36462288 1.74797528 0.24823681
Ni 10.55076661 0.00858846 3.49889102
Ni 10.53163056 1.62076035 5.24533671
Ni 12.37532386 0.28981721 5.15044343
Ni 12.31303587 1.79041864 3.40797160
Ni 10.68119534 17.37449933 6.94439008
Ni 10.58776845 1.81128411 8.81128561
Ni 12.28264149 17.55234517 8.68152887
Ni 12.46975196 1.71304859 6.93217461
Ni 10.45712543 17.57276946 10.46417656
Ni 10.37275624 1.70015563 12.43931163
Ni 12.31641823 17.51897375 12.23178075
Ni 12.08383747 1.59180452 10.60933699
Ni 10.30742959 0.09113572 14.14912648
Ni 10.47727521 1.69936661 16.04823570
Ni 12.13635447 0.00066935 15.91745872
Ni 12.13168124 1.50227359 14.03078215
Ni 10.81296410 3.50197784 17.49789856
Ni 10.44465343 5.28989260 1.55112865
Ni 12.22052860 3.50585865 1.75711100
Ni 12.42216092 5.22111245 0.04927540
Ni 10.58950095 3.40006864 3.62442332
Ni 10.65721147 5.05294823 5.28210172
Ni 12.41223536 3.54117375 5.25738417
Ni 12.28573343 5.26666091 3.44174803
Ni 10.73973892 3.55931837 7.08907339
Ni 10.60077384 5.39329716 8.75992043
Ni 12.41143812 3.39323467 8.99851144
Ni 12.36283190 5.29341627 6.97517279
Ni 10.48563387 3.81364298 10.65116097
Ni 10.50520173 5.33822762 12.48703373
Ni 12.13662709 3.41113744 12.32871009
Ni 12.32358465 5.36331223 10.47582246
Ni 10.51895556 3.46572706 14.55849167
Ni 10.60831422 5.43887395 15.90075840
Ni 12.46114794 3.70303465 16.01876328
Ni 12.31098214 5.26265653 14.13569550
Ni 10.85682916 7.25389463 0.07666630
Ni 10.63072828 9.00101163 1.66675996
Ni 12.35532106 6.82455826 1.68689101
Ni 12.45211286 8.92536636 0.14745790
Ni 10.63020001 7.10499546 3.43627212
Ni 10.61325927 8.99129240 5.13344495
Ni 12.31880490 6.92839375 5.18702606
Ni 12.43254578 8.73115386 3.24598820
Ni 10.62770628 7.27417409 7.05414359
Ni 10.86269757 8.75281364 8.98109627
Ni 12.53445120 6.89615346 8.69941152
Ni 12.46659077 8.97666467 6.97982642
Ni 10.81086852 7.07642685 10.83343718
Ni 10.67124240 8.73521723 12.53277550
Ni 12.31128605 7.05081336 12.65057698
Ni 12.50778676 8.83010828 10.59966814
Ni 10.50856956 7.00005803 14.16940092
Ni 10.58959927 8.66448803 15.89032741
Ni 12.20751324 7.07780573 15.69455805
Ni 12.33419341 9.14362034 14.00753953
Ni 10.46067815 10.58164687 17.59316150
Ni 10.38988715 12.36832299 1.62464877
Ni 12.26887874 10.67898935 1.74550809
Ni 12.27691124 12.63750272 17.58586953
Ni 10.63729400 10.55076463 3.45903243
Ni 10.48921273 12.23073335 5.35015758
Ni 12.40521570 10.68861775 5.10768201
Ni 12.41141727 12.33843153 3.42264997
Ni 10.50179261 10.26314306 7.08936758
Ni 10.64294517 12.25623615 8.76163367
Ni 12.37510253 10.62204672 8.77443546
Ni 12.19519506 12.33936548 6.89588191
Ni 10.75170853 10.73786024 10.51114158
Ni 10.41519742 12.45085510 12.53666781
Ni 12.09312565 10.69094125 12.33825023
Ni 12.35109277 12.30788887 10.66887272
Ni 10.48455283 10.82797690 14.28647823
Ni 10.46792497 12.47518197 15.76934845
Ni 12.17991418 10.69584584 16.01383453
Ni 12.30835784 12.47972973 14.31079576
Ni 10.29500166 14.21061610 17.56428801
Ni 10.45848463 15.83480042 1.91425262
Ni 12.36781385 14.24529096 1.74391083
Ni 12.06459798 15.82753392 0.03261720
Ni 10.63573807 13.84391188 3.53837911
Ni 10.52030921 15.96747251 5.13311915
Ni 12.19179744 14.12714733 5.35607341
Ni 12.40755184 15.79345966 3.50263852
Ni 10.41201791 14.12295229 7.15180135
Ni 10.61082784 15.85205488 8.95179667
Ni 12.29677966 13.81946802 8.58776679
Ni 12.20274961 15.66234179 6.99927584
Ni 10.61024090 13.94505205 10.49405084
Ni 10.35080998 16.05812429 12.44095535
Ni 12.35968025 13.99683522 12.27657057
Ni 12.40851210 15.64399805 10.61752180
Ni 10.41893742 14.17174051 13.92394735
Ni 10.29310548 15.92954235 15.87276400
Ni 12.20400825 14.38718765 15.81009797
Ni 12.17821161 16.05340653 14.15373084
Ni 14.04822744 17.55136786 0.05271556
Ni 14.20084234 1.61118467 1.64080624
Ni 15.95193749 0.13960731 1.74873245
Ni 15.93612405 1.81767884 17.46389677
Ni 14.27367416 17.59933065 3.61037408
Ni 14.27733590 1.81793736 5.47723391
Ni 15.98063752 0.11239472 5.36458279
Ni 15.69601767 1.81104778 3.51816448
Ni 14.12032103 17.55408617 7.26510702
Ni 14.31950755 1.74490539 8.84594413
Ni 15.88552421 17.31616853 8.78949385
Ni 16.09596065 1.63191768 6.97491870
Ni 13.90505859 0.00311813 10.37887129
Ni 14.08424050 1.71708518 12.36960107
Ni 15.78234838 17.49237069 12.27295979
Ni 15.74639652 1.52877985 10.54704940
Ni 14.15959044 0.11648625 14.10324596
Ni 13.86681967 1.61492150 15.97730365
Ni 15.79639270 17.59096845 15.68233908
Ni 15.83269103 1.76716859 13.93042315
Ni 14.16973393 3.30813277 0.10863299
Ni 14.18783001 5.18562548 1.75616875
Ni 15.92414615 3.23866023 1.78358299
Ni 15.67403138 5.42096213 17.55508169
Ni 14.16396450 3.50930146 3.52608142
Ni 14.31198997 5.62131128 5.11083788
Ni 15.92195042 3.60696869 5.26157451
Ni 15.83080849 5.51125969 3.47093807
Ni 14.11873517 3.62835285 7.25661016
Ni 14.19272509 5.24158788 9.01394239
Ni 15.88342456 3.43011226 8.63839333
Ni 15.58935273 5.43541995 7.04718412
Ni 14.18290986 3.47734670 10.43581562
Ni 14.11004319 5.30260636 12.28572406
Ni 15.80572820 3.48554552 12.29918856
Ni 16.05546258 5.28926979 10.47479090
Ni 13.99243326 3.52476398 14.01680092
Ni 14.06446373 5.49075885 15.82847227
Ni 15.80257395 3.30127808 15.74128478
Ni 15.64072389 5.24436663 13.83756719
Ni 14.09326033 6.94341897 0.18891634
Ni 14.40209449 8.67411495 1.77768366
Ni 16.17025610 6.98306946 1.77130910
Ni 15.67667710 8.88914752 17.57621948
Ni 14.19082804 7.15877717 3.44998946
Ni 13.99926481 8.72654583 5.16337190
Ni 16.03564027 7.26252020 5.54999641
Ni 16.03903470 8.68939688 3.54721031
Ni 14.07796237 7.06146457 6.81660927
Ni 14.12161535 8.78769055 8.85673988
Ni 16.13311403 7.14929040 8.79964284
Ni 15.83298252 8.92220068 7.10241228
Ni 13.96006085 7.17069333 10.72786653
Ni 14.04788622 8.90058410 12.46087711
Ni 15.87060417 7.03177739 12.09670817
Ni 15.79258630 8.94398848 10.77563551
Ni 14.21448224 7.11411382 14.00805967
Ni 14.08590175 9.00413509 15.70794927
Ni 15.74509656 7.27986266 15.79607177
Ni 15.76501324 8.72432248 13.89763156
Ni 13.81147041 10.61609089 0.02422168
Ni 14.07935856 12.21607866 1.74982238
Ni 15.76356987 10.54164647 2.03406672
Ni 15.81958915 12.19611257 0.18793147
Ni 14.03620850 10.70816364 3.47226945
Ni 14.15618622 12.25895239 5.23963303
Ni 15.75246974 10.47758320 5.36799516
Ni 15.77790604 12.36415640 3.41255083
Ni 14.13886163 10.67387824 7.14496288
Ni 14.15801651 12.30373799 8.96170179
Ni 15.80652174 10.63302262 8.79685796
Ni 15.84169473 12.36443592 6.94268927
Ni 14.09427946 10.51215267 10.70642359
Ni 14.23881518 12.32700448 12.17178246
Ni 15.69226709 10.61975455 12.36668466
Ni 15.89981303 12.32998399 10.61235596
Ni 14.06882469 10.70963024 14.11218911
Ni 14.23683112 12.38299159 15.98277854
Ni 15.74461194 10.61759018 15.86117636
Ni 15.95510670 12.37777820 13.97209716
Ni 14.20119828 14.20524399 17.58942765
Ni 14.25761499 15.77094990 1.74319125
Ni 16.00349052 14.02374707 1.76657717
Ni 15.81563060 15.94909354 0.00683850
Ni 14.02606057 14.04244726 3.33508470
Ni 14.26779620 15.78788390 5.26225092
Ni 15.90738513 14.02422425 5.18430226
Ni 15.86602946 15.96172838 3.35492259
Ni 14.22838073 14.10745414 7.10825477
Ni 13.98232371 15.68781499 8.87963736
Ni 16.00174585 13.99156536 8.80528920
Ni 15.98706157 15.68938973 6.97725913
Ni 14.23154955 14.03846233 10.67779956
Ni 13.94328151 15.78249828 12.48622749
Ni 15.74168993 14.20663246 12.34611565
Ni 15.69763470 15.79405228 10.57171607
Ni 14.06335051 14.00758163 14.21074372
Ni 14.04654545 15.85639035 15.67825485
Ni 15.88306825 14.18841182 16.06407747
Ni 15.78903519 15.80164219 14.06586968
