500
Final configuration Lattice="18.07500000 0 0  0 18.07500000 0  0 0 18.07500000" Properties=species:S:1:pos:R:3
Cu 0.31784266 0.04670177 17.97647051
Cu 17.98930908 1.68034182 1.53329818
Cu 2.04692743 0.13447147 1.43108503
Cu 2.23068470 2.11571714 0.00647018
Cu 0.12136377 0.12086921 3.68282023
Cu 0.29948959 1.76938818 5.50790608
Cu 2.20503959 0.07334486 5.52829751
Cu 2.26307067 1.80130342 3.77491483
Cu 0.19030859 18.06172463 7.09867296
Cu 0.18240856 1.70413586 9.00084532
Cu 1.76765065 17.90875436 9.09074234
Cu 2.16606368 1.50173162 7.30485931
Cu 18.03052352 17.91567158 10.58450191
Cu 17.90999576 1.84049360 12.29240209
Cu 1.40749019 0.03557301 12.58645674
Cu 2.15502024 2.00218982 10.85962985
Cu 17.80004707 0.39813796 14.56050373
Cu 0.10109110 1.76180552 16.40903344
Cu 2.11766867 17.96521357 16.46240965
Cu 2.05046761 1.51966350 14.51028976
Cu 0.11615348 3.61604934 0.18486990
Cu 0.24469229 5.24853990 2.12897539
Cu 2.30739438 3.60140856 1.87320973
Cu 2.15452730 5.14855952 0.27702075
Cu 0.23830750 3.27249062 3.69812718
Cu 0.05212724 5.16252604 5.22503375
Cu 1.91863181 3.64447075 5.42282230
Cu 2.08472813 5.23390934 3.87645305
Cu 0.08441196 3.54949421 7.17405950
Cu 17.84895615 5.45518330 8.82590814
Cu 2.30337348 3.40388976 8.96850786
Cu 1.73065037 5.20825243 7.25102527
Cu 0.31025222 3.68020608 10.58666219
Cu 18.04994074 5.35413928 12.72103912
Cu 1.59865109 3.51072272 12.74791745
Cu 1.83125464 5.25183249 10.70370999
Cu 0.34747504 3.13299501 14.68722843
Cu 0.36212935 5.44566093 15.99646209
Cu 1.85380255 3.75969000 16.30345114
Cu 1.81441253 5.45160935 14.13050937
Cu 0.44896866 6.59989379 17.96826053
Cu 0.00709976 9.17652263 1.50304604
Cu 1.76007328 7.47016249 1.90843793
Cu 1.46522306 8.97652586 0.02354271
Cu 0.20294694 7.04046701 3.51828809
Cu 0.08022280 8.85044644 5.77916999
Cu 1.78361000 7.06362943 5.71954344
Cu 1.48561907 9.19661410 3.79249778
Cu 18.00757115 7.02833948 7.18901170
Cu 17.83465580 8.99776632 9.07091523
Cu 1.70282292 6.84638827 9.01393047
Cu 1.61192482 8.82528225 7.72446364
Cu 17.67775944 7.24689287 10.81870579
Cu 17.90909471 9.08477818 12.61759142
Cu 1.47656358 7.31766782 12.39125172
Cu 1.47315566 8.86850870 10.64615426
Cu 18.03048127 7.02513543 14.21409394
Cu 0.04384236 9.26203542 16.20607133
Cu 2.16251564 7.17922732 16.49192275
Cu 1.68168268 8.81231112 14.38118915
Cu 0.24708709 10.93893551 18.05667448
Cu 0.08914017 12.57942626 1.70734063
Cu 1.66503364 10.71679403 1.85237354
Cu 1.39202659 13.02478116 17.97462987
Cu 17.84518580 10.60776243 3.41602063
Cu 17.93828009 12.64411514 5.26005584
Cu 1.71665104 10.71925518 5.51004752
Cu 1.46896070 12.48125017 3.51045217
Cu 18.04231054 10.90080738 7.17783355
Cu 0.28746724 12.71938491 9.14089918
Cu 1.47264836 10.77766802 8.97998319
Cu 2.00686208 12.61050470 6.91470390
Cu 18.03930740 10.89853259 10.86262041
Cu 17.85185423 12.76893111 12.29157629
Cu 1.98802346 10.83489216 12.41884420
Cu 1.93361475 12.70049347 10.84715926
Cu 18.06790024 10.94580877 14.18561873
Cu 0.14980424 12.89863419 16.12984335
Cu 1.87370333 10.80214531 16.27127542
Cu 1.54830768 12.81767412 13.89535068
Cu 17.95904008 14.67560140 17.79925674
Cu 18.03646178 16.06616822 1.73081415
Cu 2.02097642 14.23261361 1.83504104
Cu 1.77430078 16.08011281 0.18370018
Cu 17.83767876 14.78141457 3.60952756
Cu 0.41324196 16.13546000 5.15836078
Cu 1.95474134 14.43386234 5.22596298
Cu 1.80245417 16.42564433 2.98082119
Cu 0.07904166 14.45013881 6.85873952
Cu 0.12808092 16.27569775 8.79711258
Cu 1.81315175 14.51296585 8.63770361
Cu 1.95914424 16.06754487 6.91275372
Cu 17.77730944 14.61276681 10.68993803
Cu 17.86046777 16.63656835 12.47536738
Cu 1.29789302 15.05948226 12.46897574
Cu 1.97320169 16.12736256 10.47863764
Cu 17.55263781 15.03118661 14.32657365
Cu 17.81928888 16.40912019 16.16641071
Cu 1.72970878 14.57958003 16.05479250
Cu 1.50972671 16.59585021 14.32839799
Cu 3.79569630 18.00158753 18.03099906
Cu 3.99801195 1.78351453 1.84776897
Cu 5.43592073 18.07019037 1.87128783
Cu 5.50213932 1.36669696 0.00766695
Cu 4.04358654 17.84386940 3.77832131
Cu 3.99886925 1.79439115 5.58096608
Cu 5.89055413 0.29035530 5.79719866
Cu 5.86142500 1.75184762 4.03209715
Cu 4.17221712 0.03527984 7.24949730
Cu 3.96832569 1.73908086 9.16289927
Cu 5.78470641 0.00793562 8.94903696
Cu 5.66832303 2.06793368 7.17069994
Cu 3.74461755 17.98309440 10.85510753
Cu 3.65854941 2.01412429 12.78946237
Cu 5.20654094 0.27726383 12.96059447
Cu 5.47655176 1.60999544 10.68151139
Cu 3.44137529 17.75945273 14.51629271
Cu 3.74915612 1.74632253 16.40602867
Cu 5.61997511 17.96022221 16.04868099
Cu 5.28630064 2.06498457 14.54328572
Cu 4.14981579 3.76415855 17.91018304
Cu 3.62877038 5.57692157 2.42697630
Cu 5.42634831 3.80883366 2.15206614
Cu 5.47703246 5.74872801 0.31901797
Cu 4.05539359 3.43998651 3.97907470
Cu 3.59887348 5.14554533 5.61929021
Cu 5.66521295 3.96078700 5.54056597
Cu 5.55424838 5.55221501 3.68564493
Cu 4.06613233 3.73568339 7.58682718
Cu 3.79037865 5.31606803 9.02802595
Cu 5.50471777 3.63064614 9.29248939
Cu 5.70132477 5.70425787 7.34169523
Cu 3.58402771 3.62111729 10.72793593
Cu 3.69660629 5.24688627 12.66399564
Cu 5.56813689 3.56793723 12.35626911
Cu 5.29857338 5.50021777 10.76915327
Cu 3.40966895 3.42823167 14.60791932
Cu 3.83135587 5.26942352 15.89323154
Cu 5.52188450 3.71689520 16.11735613
Cu 5.55157304 5.55804561 14.18565652
Cu 3.66526950 7.30278496 0.08410164
Cu 3.48808544 9.11891488 1.63816988
Cu 5.29114357 7.58208581 1.81114150
Cu 5.12784882 9.25537427 17.98934923
Cu 3.44779329 7.43465231 3.67923966
Cu 3.44270760 9.14649861 5.49986956
Cu 5.42997981 7.55211468 4.88870217
Cu 5.66670919 9.33975089 3.18500453
Cu 3.56111090 6.92409450 7.04458629
Cu 3.55259440 8.59709748 9.16585070
Cu 5.62987767 7.24604812 9.14216004
Cu 5.40419321 8.88746111 7.47057239
Cu 3.33843893 7.08434568 10.95651500
Cu 3.35527184 8.91030637 12.44920550
Cu 5.32199651 7.48531729 12.71392631
Cu 5.34675933 9.13430303 10.72335945
Cu 3.41679658 7.05788978 14.13659570
Cu 3.39382402 9.11881036 16.53056616
Cu 5.29223025 7.34867837 16.37828406
Cu 5.31340457 8.98859153 14.61742801
Cu 3.46989525 11.46470739 0.28118743
Cu 3.73949665 12.78984176 2.07937266
Cu 5.33262786 11.05086840 1.60843888
Cu 5.52188953 12.71323813 17.96193986
Cu 3.72441797 10.83251566 3.79443417
Cu 3.74030926 12.83987000 5.19765624
Cu 5.48049817 10.65372383 5.57356227
Cu 5.58069742 12.71409557 3.38373099
Cu 3.43535100 10.33320698 7.38001770
Cu 3.57309173 12.34147845 8.58513996
Cu 5.33829872 11.18142703 9.23191136
Cu 5.59504195 12.53653867 7.15004954
Cu 3.42866116 10.65787395 10.59758733
Cu 3.51719669 13.01865658 12.79798259
Cu 5.09753890 10.84236313 12.68563582
Cu 4.92722930 12.51569258 11.02539843
Cu 3.36292736 10.75510653 14.57625527
Cu 3.31026562 12.81476581 15.98134640
Cu 5.15655350 10.93271133 16.31000209
Cu 4.89709385 12.71657048 14.38457954
Cu 3.51055014 14.35063970 17.91105275
Cu 3.72763851 16.06022951 1.80587092
Cu 5.47635898 14.56240147 1.48742221
Cu 5.25639884 16.21024962 18.00047957
Cu 3.55242924 14.59567417 3.67593239
Cu 3.89559446 16.01788004 5.52389854
Cu 5.69399280 14.02983138 5.30149091
Cu 5.34529906 15.96249904 3.74381923
Cu 3.64069882 14.32726078 7.33593543
Cu 3.49318734 16.25660715 8.87669119
Cu 5.30240657 14.02154208 9.07998031
Cu 5.64717216 16.26147332 7.27362110
Cu 3.55407530 14.42389479 10.64448964
Cu 3.45617318 16.32915647 12.42631831
Cu 5.12457794 14.62924596 12.50586862
Cu 5.35911696 16.23911261 10.03974857
Cu 3.49079031 14.78488907 14.33108695
Cu 3.74254469 16.11659629 16.00387384
Cu 5.15123833 14.46178233 16.12505573
Cu 5.41933952 16.38768023 14.53359607
Cu 7.05601271 17.58673805 0.23372026
Cu 7.06750435 1.94241352 2.05687325
Cu 8.85439763 0.16599598 2.10325371
Cu 9.15656323 1.91604566 0.27128389
Cu 6.84906065 17.62603764 3.58743858
Cu 7.55795672 1.78970664 5.55775352
Cu 8.92582372 17.86454552 5.41817388
Cu 9.03281681 2.03825099 3.82877999
Cu 7.81629958 17.98997254 7.68987708
Cu 7.10773277 1.92807653 8.97448370
Cu 9.06195074 17.89322612 9.40463289
Cu 9.18633168 1.84975338 7.06801956
Cu 7.31150605 18.00179576 10.89418652
Cu 7.08708937 1.58937834 12.69171975
Cu 9.06810521 0.25178064 12.82523610
Cu 9.01749679 1.88816822 10.93122756
Cu 7.45054883 0.01911658 14.39721636
Cu 7.19343666 1.74327324 16.29737364
Cu 8.92594022 0.07955173 16.47711231
Cu 9.21556127 1.96251343 14.35377646
Cu 6.90837231 3.25678891 0.01266867
Cu 7.09580025 5.66439699 1.77958490
Cu 9.21344105 3.67133169 1.94384313
Cu 8.70916184 5.56534276 0.09322409
Cu 7.37456096 3.56574788 3.95492147
Cu 7.12128756 5.60890737 5.40261785
Cu 9.27742466 3.98885126 5.51567251
Cu 8.87934389 5.33475018 3.52605301
Cu 7.31512511 3.75450009 7.42063049
Cu 7.46076556 5.38869249 8.92121861
Cu 9.27660466 3.65552104 8.72141415
Cu 9.15728482 5.74481513 7.34833609
Cu 7.48924189 3.68269123 10.71199356
Cu 7.18410921 5.35534565 12.32403958
Cu 9.16196214 3.77377269 12.67686649
Cu 9.00791257 5.60298911 10.84691859
Cu 7.33093375 3.66194597 14.18620888
Cu 7.12264386 5.51137506 16.38768286
Cu 9.00996017 3.51814787 16.23520779
Cu 8.61751302 5.44913295 14.16271761
Cu 6.98372014 7.50012883 0.07485973
Cu 7.24514355 8.95994899 1.79775859
Cu 8.96565278 7.30481457 1.97646197
Cu 8.88226516 8.98144419 0.28103442
Cu 7.22601696 7.45414352 3.43217896
Cu 7.29147585 8.98417967 5.51100982
Cu 8.93873003 7.12056818 5.05866494
Cu 8.84870905 8.99568447 3.59670690
Cu 7.40027297 7.40326786 7.64922001
Cu 7.17245187 9.51922441 9.13657515
Cu 9.16207329 7.34956384 9.14734628
Cu 9.26135907 9.20053416 6.85294651
Cu 7.24109804 7.26766306 10.76911897
Cu 6.86587779 9.05227962 12.90894950
Cu 8.99462021 7.35777110 12.56708464
Cu 8.66139154 9.24683308 11.15511869
Cu 7.08363159 7.33440200 14.30772426
Cu 7.00955877 9.08976593 16.25242773
Cu 8.45314171 7.42831979 16.14804230
Cu 8.47316864 8.97793541 14.40431537
Cu 7.09761696 10.65608154 0.03282711
Cu 7.32503000 12.74189234 1.61733135
Cu 9.11561962 10.63538053 2.02420800
Cu 8.87674336 12.18670308 0.06484182
Cu 7.23612216 10.98032515 3.46464745
Cu 7.61373913 12.59706746 5.41229621
Cu 9.03659012 10.73106004 5.29813752
Cu 9.13449959 12.53289875 3.51411949
Cu 7.04296868 10.42971986 7.16128470
Cu 7.29897229 12.89053770 9.16753448
Cu 8.80975624 10.81767001 8.99867258
Cu 9.04816100 12.59100484 7.40478840
Cu 6.68566897 10.89607743 10.97912288
Cu 6.90785215 12.98015340 13.06826622
Cu 8.30936388 10.97519447 12.92297052
Cu 8.65085578 12.36504814 10.96645388
Cu 6.99137763 10.68651942 14.65659572
Cu 7.03500508 12.72703186 16.21681390
Cu 8.78493273 10.74194966 16.34045982
Cu 8.99476176 12.79260160 14.66660473
Cu 7.15852791 14.36393935 17.83748360
Cu 7.59068577 16.05588374 1.79986943
Cu 9.18948374 14.36412942 1.84080913
Cu 9.12827076 16.15081288 0.08566369
Cu 7.40129938 14.20698620 3.50712259
Cu 7.20645933 16.09560994 5.36561946
Cu 8.93835168 14.46878045 5.36454938
Cu 9.18440735 16.26144063 3.59572888
Cu 7.34876741 14.33344040 7.49610956
Cu 7.50595157 16.15833537 9.43636009
Cu 9.21077942 14.40864811 9.14277754
Cu 9.20714084 16.24688048 7.24108866
Cu 6.93988142 14.56766251 11.09852176
Cu 7.21171855 16.24356296 12.79902770
Cu 8.89991222 14.30162982 12.95691831
Cu 9.12383141 16.10038771 11.23085006
Cu 7.01920336 14.62936431 14.56734351
Cu 7.30143482 16.14959986 16.18907374
Cu 8.94354601 14.38253395 16.41501924
Cu 9.26344033 16.39062601 14.67718879
Cu 10.69168994 17.98984585 0.22219493
Cu 10.85059300 1.68098869 2.18512649
Cu 12.47858010 0.03936164 2.17679911
Cu 12.37071431 1.67171756 0.36584077
Cu 10.72069479 0.04269542 3.83830698
Cu 11.09199420 1.79885999 5.40767676
Cu 12.73658177 17.67775906 5.24041969
Cu 12.65633007 1.94996837 3.97443940
Cu 10.74947557 0.01446010 7.06226176
Cu 10.68639637 1.89059118 9.19330360
Cu 12.95516591 17.78605859 8.61910246
Cu 12.54121602 1.88308931 7.55557036
Cu 10.62897767 17.96815119 11.08880741
Cu 10.84600866 1.80819396 12.71761074
Cu 12.63068263 0.38273441 12.84998670
Cu 12.60288152 1.61625664 10.49432738
Cu 10.84590103 0.17948382 14.62107175
Cu 10.60271817 1.98413374 16.53950474
Cu 12.73395594 0.35463612 16.48538163
Cu 12.74670474 2.12350401 14.48577447
Cu 10.46549081 3.96690099 0.15354496
Cu 10.84060902 5.47280783 2.09826120
Cu 12.33653871 3.60167115 1.73294056
Cu 12.71259144 5.64387791 18.06852982
Cu 10.92737169 3.71117183 3.81281796
Cu 11.09266247 5.60804992 5.67243084
Cu 12.48874014 3.79713662 5.58554294
Cu 12.81909206 5.23866729 3.76029909
Cu 10.93228828 3.68494710 7.06005441
Cu 10.77422374 5.66777995 8.83653841
Cu 12.44589911 4.02395263 8.91858204
Cu 13.05663733 5.44453385 7.18810684
Cu 10.54088710 3.68835547 10.76928217
Cu 10.47901697 5.57376743 12.63762295
Cu 12.29852750 3.65219170 12.46940031
Cu 12.47305737 5.54336233 10.72003819
Cu 10.54352542 3.87453879 14.30962073
Cu 10.16658990 5.51511773 16.32275992
Cu 12.34216082 3.44037013 16.57300038
Cu 12.50848709 5.48756261 14.58176896
Cu 10.57447658 7.22167073 0.02422520
Cu 10.86332121 9.21216805 2.19829113
Cu 12.89763271 7.24822851 1.58677147
Cu 12.46286614 8.99086816 17.98670352
Cu 11.23017647 7.05333808 3.59371399
Cu 10.96652695 8.94832239 5.03275583
Cu 13.06804248 7.10377826 5.62677956
Cu 12.85419061 8.66819295 3.31133840
Cu 10.94411841 7.37958283 7.04821113
Cu 10.68423776 8.98457338 9.12621899
Cu 12.45294774 7.26634728 8.84599730
Cu 12.50664052 9.00145097 7.09579884
Cu 10.79219085 7.33873539 10.93122188
Cu 10.78446306 9.27973609 12.86751408
Cu 12.64424369 7.35670335 12.56410090
Cu 12.29682692 9.18308756 10.65564106
Cu 10.55193779 7.27505370 14.30861370
Cu 10.31946180 8.91316300 16.31647084
Cu 11.95252505 7.37858755 16.40301195
Cu 12.40664649 8.67884506 14.53566208
Cu 10.79424423 10.64112915 17.93441738
Cu 10.85687857 12.77496919 1.59618030
Cu 12.52753408 10.81640997 2.05555204
Cu 12.65586902 12.93869814 17.86225332
Cu 10.70939380 11.06339934 3.71104626
Cu 10.93574295 12.86908708 5.23494766
Cu 12.48652041 10.75090071 5.55922876
Cu 13.08236128 12.32431311 3.67071825
Cu 10.72498544 10.95608509 7.36533105
Cu 10.48773245 12.48116533 9.32954492
Cu 12.69497813 10.61296342 9.01234435
Cu 12.75939367 12.56014303 7.04860487
Cu 10.62821775 10.73682392 10.99134566
Cu 10.96930980 12.28187754 12.66617164
Cu 12.65433717 10.60391558 12.49434794
Cu 12.58597779 12.90675042 11.22627357
Cu 10.42846694 10.74694029 14.66740301
Cu 10.79105345 13.07024383 16.49832628
Cu 12.56360204 10.71791681 16.26056694
Cu 12.08411967 12.41114671 14.70802574
Cu 10.69512964 14.82416616 0.19301763
Cu 10.86144155 16.46718857 2.10756397
Cu 13.12917225 14.24373344 1.85206748
Cu 12.81537436 16.56382166 0.12100183
Cu 11.23073403 14.30544027 3.37256323
Cu 11.06621761 15.95997926 5.27513856
Cu 12.76222061 14.41952294 5.33943995
Cu 12.84034548 16.24883261 3.37137619
Cu 10.88838312 14.05018360 7.16281092
Cu 11.05837870 16.65408252 9.08599671
Cu 12.59812889 13.86443141 9.03619563
Cu 12.59578885 15.61340476 7.18227423
Cu 10.87895488 14.51073981 11.27134176
Cu 10.92493973 16.35520689 12.82396505
Cu 12.75765398 14.69836008 12.98746524
Cu 12.42863494 16.39227321 10.73352221
Cu 11.20100824 15.02115128 14.78715842
Cu 10.79168985 16.58173266 16.52842539
Cu 12.84156748 15.01300913 16.43577557
Cu 12.90416574 16.45627004 14.76903624
Cu 14.51408893 0.25233444 0.23285636
Cu 14.39282850 2.06822543 1.78921836
Cu 16.56895593 0.04818087 1.71235859
Cu 16.16223430 2.25328459 17.88026321
Cu 14.50900182 17.97684400 3.55901386
Cu 14.13596225 1.46210408 5.58638680
Cu 16.39331175 17.72232513 5.36655153
Cu 16.15002562 1.45422522 3.57957296
Cu 15.05988644 17.82108963 7.12317239
Cu 14.56563166 1.42932023 8.77772454
Cu 16.26337010 0.10336378 9.03170747
Cu 16.45379912 1.66742118 7.26325109
Cu 14.18538385 0.09047946 10.68811713
Cu 14.40849432 1.97237080 12.77073491
Cu 16.11202850 0.00480963 12.73395081
Cu 15.90288184 1.91027137 10.85130469
Cu 14.44266429 0.25420929 14.45253982
Cu 14.45655443 1.97212463 16.29118161
Cu 16.34407316 0.01946578 16.45180235
Cu 16.26419793 2.04091558 14.57498944
Cu 13.96863493 3.74427445 0.21586944
Cu 14.73487059 5.45199242 1.58731379
Cu 16.47373413 3.61675250 2.01367493
Cu 16.26252353 4.99749086 17.91665424
Cu 14.71913325 3.69728811 3.53803467
Cu 14.54141791 5.23479900 5.57129968
Cu 16.21469375 3.28408157 5.31691472
Cu 16.34715299 5.54754376 3.32950224
Cu 14.62180526 3.31333900 7.29220272
Cu 14.60644480 5.27315614 8.99631783
Cu 16.38463628 3.42474213 8.93653992
Cu 16.29205607 5.05006888 6.96256672
Cu 14.34199593 3.72415751 10.58238710
Cu 14.33734121 5.38580673 12.55213707
Cu 16.23240315 3.74050064 13.01270479
Cu 16.11190976 5.39553402 10.96244265
Cu 14.40632010 3.57176200 14.85023395
Cu 14.02644696 5.52651420 16.32222104
Cu 16.46576788 3.78950229 16.12138612
Cu 16.32669995 5.62318562 14.48785519
Cu 14.58242252 7.41789078 17.80880938
Cu 15.08834022 8.93575254 1.70363439
Cu 16.68349360 7.06590811 1.46590904
Cu 16.36542492 9.04817689 17.88103498
Cu 14.52844349 7.00451440 3.66288320
Cu 14.09052354 9.22944891 5.35874623
Cu 16.29556593 6.88180690 5.34472529
Cu 16.36814628 8.74768671 3.71228611
Cu 14.84530585 7.11177218 7.06849051
Cu 14.43133782 8.84760621 9.15578798
Cu 16.08939348 7.29755958 9.18758096
Cu 16.07850111 8.80683034 7.28342666
Cu 14.14098426 7.32344506 10.93057402
Cu 14.54838945 9.15006539 12.69384580
Cu 16.21399898 7.48257077 12.60734586
Cu 16.25989527 9.34844989 10.80502499
Cu 14.36345292 7.41191209 14.11055745
Cu 14.33435370 9.15873615 16.08203024
Cu 16.50013707 7.35261608 16.39929428
Cu 16.31180341 9.28840549 14.85890216
Cu 14.13148404 10.37224631 0.03042170
Cu 14.35755124 12.23035834 1.78413633
Cu 16.33222564 11.24567178 1.42506806
Cu 16.39632507 12.77409154 17.82243126
Cu 14.84766451 10.72794471 3.51509405
Cu 14.51314382 12.44673488 5.63318299
Cu 16.32069559 10.69804472 5.51840968
Cu 16.59824724 12.88390749 3.50750783
Cu 14.51051614 10.65791411 7.27886214
Cu 14.62019424 12.47998731 8.81909802
Cu 16.42274020 10.95786014 8.98346586
Cu 16.33732170 12.80680353 7.17745669
Cu 14.55603847 10.76284324 10.89826619
Cu 14.70336211 12.73064510 12.31913815
Cu 16.38126600 10.90010715 12.56212616
Cu 16.15304156 12.31616173 10.74334578
Cu 14.24343549 11.20722857 14.14037595
Cu 14.38188088 12.52976903 16.02190723
Cu 16.22566508 10.97336239 16.67237887
Cu 16.42229289 13.06014260 14.22635544
Cu 14.40510469 14.32075767 17.91206223
Cu 14.77434034 16.25730911 1.48637528
Cu 15.90739129 14.24877237 1.42182217
Cu 16.38527299 16.58612505 0.12101450
Cu 14.62825300 14.24003953 3.40092265
Cu 14.53140534 16.13172604 5.33715611
Cu 16.18265266 14.42489699 5.21329156
Cu 16.37828454 16.38037827 3.31797601
Cu 14.33054525 14.16851971 7.16633200
Cu 14.55963859 16.23523451 8.95432086
Cu 16.25610265 14.34123047 9.05671558
Cu 16.58603835 16.05000481 7.44864662
Cu 14.47928325 14.32555519 10.65089688
Cu 14.28963916 16.38784892 12.56164946
Cu 15.93774776 14.80231050 12.34969059
Cu 15.94750955 16.74397323 10.86628745
Cu 14.35412895 14.28251210 14.49355289
Cu 14.60759861 16.66060574 16.72811348
Cu 15.86220335 14.76955047 16.21553146
Cu 15.61542433 16.23943705 14.39671856
