500
Final configuration Lattice="17.60000000 0 0  0 17.60000000 0  0 0 17.60000000" Properties=species:S:1:pos:R:3
Ni 8.59732944 15.73319935 15.31543806
Ni 15.06229145 7.24375143 10.77120906
Ni 5.49336985 2.47039623 2.62572921
Ni 15.52831109 4.16461737 0.18251423
Ni 3.87557085 16.68330170 9.93985418
Ni 14.92192111 7.91446803 6.88299337
Ni 0.72429912 16.10814034 13.14576858
Ni 2.96049690 7.76493881 7.91914380
Ni 15.39070858 1.77265170 8.58252323
Ni 1.28635544 4.09182489 8.85193812
Ni 17.46824689 1.84947126 5.04471739
Ni 8.65619850 0.07927635 8.11540329
Ni 8.05263982 4.13955591 4.70197107
Ni 14.72320990 13.65638066 12.68430183
Ni 3.14311214 1.95800431 13.32119170
Ni 14.44212141 16.14120416 9.24602047
Ni 17.51924302 17.27421137 11.14134074
Ni 0.20550387 3.05607657 0.81706926
Ni 1.21640899 3.77100242 16.69233889
Ni 12.44607849 15.19192840 13.36433562
Ni 0.41999338 6.23259934 4.26065286
Ni 1.47053494 4.80257324 2.28029101
Ni 14.20170953 4.16430101 3.29785495
Ni 1.78072644 6.60922865 6.06504312
Ni 2.82365312 2.83705508 7.78689802
Ni 16.43072197 3.70801229 13.68523478
Ni 11.59716197 11.03122294 4.10264002
Ni 1.66435619 9.97036444 15.54509869
Ni 6.11179172 2.01359576 8.96517159
Ni 6.53816135 4.33071261 6.12401519
Ni 3.18234875 0.65913940 11.17279881
Ni 5.45756197 2.37207998 6.78968710
Ni 0.80062716 2.70683392 13.50534429
Ni 3.54452702 8.20850163 9.83479279
Ni 13.11957802 9.66215128 16.52691991
Ni 13.98283298 6.36900656 5.31995082
Ni 17.17387929 2.00389812 15.45387956
Ni 15.55462470 6.07383114 1.01951732
Ni 4.41820337 15.13883460 16.61320000
Ni 13.31924577 1.71542039 5.54512844
Ni 3.77658469 9.34385087 3.79387348
Ni 17.08582656 17.05697505 5.61362730
Ni 12.81131575 1.39517428 3.43267045
Ni 16.00413464 5.21649972 5.04965304
Ni 4.05082062 4.96365717 10.67148880
Ni 3.94927995 13.08955062 13.16786361
Ni 3.47948668 9.13699269 14.86254336
Ni 1.12271774 14.50265698 11.10648821
Ni 12.38086609 9.45353824 12.51417144
Ni 8.29633989 5.38083888 1.32967603
Ni 12.55062776 17.10573539 10.06820683
Ni 17.19102715 7.13189071 6.27766316
Ni 0.65639890 13.94670960 8.91781662
Ni 13.73073953 7.66965063 8.78245419
Ni 13.55372029 4.84979688 12.28549078
Ni 2.23094811 12.63074709 11.22809228
Ni 0.50874252 7.30532338 1.74626631
Ni 14.95665556 5.16320333 9.40245244
Ni 16.02221616 1.98487712 0.22956685
Ni 12.57721001 3.25425615 2.10025400
Ni 15.62834269 15.48611110 4.33737692
Ni 5.60055181 0.16972242 2.65432068
Ni 3.65920887 1.01279144 6.54254415
Ni 10.16107433 6.17635649 10.10735738
Ni 4.85785359 6.03277198 7.06554629
Ni 2.48352448 14.23629531 7.25569452
Ni 1.51033835 8.98599654 0.52328557
Ni 10.95723791 1.67742709 15.75664987
Ni 10.44391935 10.80841571 2.30457014
Ni 2.70278582 10.76505180 12.87021022
Ni 16.86110720 17.23079615 8.24264180
Ni 12.30150654 10.79995363 0.81159199
Ni 12.75282200 17.14088089 5.90928844
Ni 3.93118512 7.60987709 5.20458767
Ni 8.04386502 6.65826459 10.02396669
Ni 16.50183878 14.30959840 6.27989973
Ni 13.30836340 12.42862233 2.10642454
Ni 3.81174923 11.66867578 3.97731043
Ni 1.98283914 12.52190464 0.90891558
Ni 7.99796965 8.75782637 10.44737792
Ni 3.90828374 9.80686219 8.29503689
Ni 12.38666765 6.02216501 14.04990031
Ni 3.48356248 14.17441144 1.12477700
Ni 0.16298591 16.07184142 3.75419813
Ni 4.82138501 15.31471171 6.07845087
Ni 15.35130708 14.72632549 14.66952731
Ni 3.84136627 11.61775791 15.04956084
Ni 17.47254936 11.18977086 15.82117326
Ni 2.31720549 12.74908111 5.56757598
Ni 12.67564627 12.78546104 4.82143705
Ni 15.99391988 12.14880194 13.85422583
Ni 15.61261455 1.32121544 6.44765773
Ni 2.68984903 10.53445303 10.60854047
Ni 13.05439697 7.26193196 17.23654984
Ni 0.93588869 16.49182059 1.24658597
Ni 1.25834714 8.23749458 10.35636412
Ni 2.07203293 6.80541719 13.96666549
Ni 3.99616870 2.88808860 9.86594834
Ni 0.71490820 10.92666606 9.57598220
Ni 15.05251906 11.60358751 11.91054946
Ni 10.96008123 12.13560397 8.78465688
Ni 8.24494530 6.02868269 3.22726370
Ni 4.15623474 3.20329462 5.08559737
Ni 11.86644263 2.81628380 7.78484134
Ni 1.94846031 1.73512201 17.43839865
Ni 0.76999126 15.91331024 7.24825517
Ni 5.64827471 17.50510299 6.80317272
Ni 7.67766055 9.95203092 3.47432053
Ni 0.78627304 4.56596475 6.44916602
Ni 13.08442122 3.54981330 9.90997116
Ni 2.35895198 3.46646713 11.87852930
Ni 12.91222503 1.18029438 14.01011222
Ni 2.00221352 2.40708647 5.08816283
Ni 2.87619886 14.24502857 15.14386751
Ni 1.54375228 2.28831593 2.69619884
Ni 4.13202596 1.15125147 16.14818806
Ni 13.42329636 7.41279226 12.55866616
Ni 3.02941304 7.92696930 2.28831522
Ni 9.52732440 9.02394224 0.86693594
Ni 17.29172837 8.88658524 16.89694492
Ni 6.41501310 16.19102017 4.00189920
Ni 17.18806841 8.38500006 14.57836889
Ni 10.10579627 7.48469718 5.08387745
Ni 7.71590550 1.97090636 6.74231546
Ni 0.73333303 2.27528395 7.17693197
Ni 2.03013770 2.02877949 9.67085626
Ni 9.11520197 5.75754701 8.42578362
Ni 3.33150504 14.60013662 9.37816045
Ni 6.87861932 15.53008329 9.94097309
Ni 4.72168695 6.90364182 3.44884948
Ni 7.59508878 9.89202196 5.84536051
Ni 7.58516296 9.27251544 16.75262302
Ni 7.39083774 11.72707846 6.80487124
Ni 0.58187982 6.27315877 15.93162419
Ni 2.29474381 12.44069888 8.85411192
Ni 5.91254981 9.91775627 9.88926147
Ni 11.48624510 4.57467344 11.44596079
Ni 7.18655159 2.45792069 12.91097372
Ni 14.00426193 7.31285811 15.24083505
Ni 2.14208605 6.74881657 0.57584652
Ni 10.93966470 10.94724809 16.75995023
Ni 10.95754981 7.31558507 16.74123628
Ni 4.56303963 16.98108148 4.80433366
Ni 5.73923876 6.11428898 13.54807405
Ni 4.50110635 5.50559253 4.92825588
Ni 1.44308625 0.10482612 8.26092719
Ni 6.70497646 15.06482859 16.49113305
Ni 0.38393059 3.92674722 4.24057676
Ni 1.32737948 12.36435369 14.41392282
Ni 3.04544224 10.30378295 1.80199914
Ni 3.58915764 11.73954620 7.17862062
Ni 6.23406044 12.58217885 12.83835051
Ni 5.94096540 7.83846701 11.05872979
Ni 0.12322203 5.58166840 0.29549706
Ni 3.82213216 9.98042471 5.83928113
Ni 10.94634041 7.94661832 11.23637859
Ni 13.10231909 5.53218622 8.08679193
Ni 6.44008169 2.83519801 16.53402335
Ni 2.92976835 3.85707996 0.53316497
Ni 2.80329068 5.31598936 16.18545564
Ni 5.93116610 9.06720987 4.59205491
Ni 5.70446363 10.54162481 2.72136596
Ni 3.68991678 8.34715709 17.32295638
Ni 7.61469709 10.35227885 13.11071272
Ni 5.65411569 10.63198205 7.27975752
Ni 15.44158261 12.54180256 4.24017717
Ni 6.38513511 7.89724114 8.80362522
Ni 3.22634845 16.45781025 7.07437054
Ni 13.54551421 11.66535997 16.70496792
Ni 7.63065683 8.14702294 12.57577342
Ni 1.04635160 12.95251055 16.47917902
Ni 16.22556933 0.17186779 3.28133209
Ni 17.54295975 0.72941524 13.71407000
Ni 3.86153987 5.82771277 1.72111780
Ni 16.88726908 4.53451663 15.78482066
Ni 6.36111228 13.05271309 2.26708385
Ni 7.50167358 14.30432934 12.37652653
Ni 15.65424857 11.38066728 0.17506604
Ni 9.17274339 5.55607017 15.73790401
Ni 3.39224737 16.76571495 1.03760639
Ni 6.16927036 3.31506172 10.60350058
Ni 4.02132373 0.97485482 8.70249281
Ni 13.90004426 14.50476145 5.77278727
Ni 5.07913776 10.28401930 0.35833986
Ni 10.50089320 5.12038610 2.07632396
Ni 9.28915309 13.95554884 5.93830154
Ni 5.89822883 11.44472262 4.80585479
Ni 6.72450606 17.50394879 8.64875913
Ni 5.68379211 0.50511675 10.46159651
Ni 6.02133772 13.59449814 10.54644748
Ni 2.13193602 14.93480221 2.65586182
Ni 6.57707321 7.04051180 15.38278444
Ni 4.32495032 9.43502927 11.39510987
Ni 3.10687265 15.83472606 11.89421803
Ni 8.17960951 13.11220451 10.29389260
Ni 4.37494185 11.84477859 9.16799468
Ni 1.74612768 8.00048082 15.95437598
Ni 7.17005133 11.37929907 10.83972509
Ni 3.02397887 5.45444438 8.08752121
Ni 5.36236635 2.06357641 14.25979919
Ni 4.55487577 13.15930135 5.61080860
Ni 7.37920082 14.48989402 0.88007802
Ni 10.81382561 1.33518008 5.84680222
Ni 2.48646538 5.94723063 3.55048429
Ni 3.02251858 3.13090123 15.65324359
Ni 14.52273844 16.16970587 16.22497639
Ni 9.10678656 2.40645801 11.42530992
Ni 13.10449117 9.58490326 7.01748645
Ni 16.35296784 1.91026148 12.30605509
Ni 5.26803489 16.88971574 15.22126982
Ni 8.70908854 15.53696130 10.83925973
Ni 13.04983816 14.68564648 15.27597118
Ni 3.72825128 1.61211008 1.48978625
Ni 9.36674501 0.04193576 16.07395279
Ni 3.96709138 13.85250281 11.19288986
Ni 13.16030617 6.23219974 10.23347766
Ni 4.67154005 0.46398811 12.69366183
Ni 12.57981132 3.35931684 15.55929094
Ni 10.11980752 15.28931516 16.82774521
Ni 6.40412997 4.02865338 14.48122511
Ni 5.24870160 10.46601585 13.90790309
Ni 7.00614901 5.01179987 16.78860632
Ni 11.71342055 8.71389572 0.84563107
Ni 16.60937915 8.12172443 3.34738179
Ni 12.30525789 5.07099869 3.56543237
Ni 15.31385835 16.21054066 6.87311351
Ni 17.13429600 11.83141948 2.26389132
Ni 7.24079299 9.02246205 14.64088849
Ni 12.33283198 6.99690785 6.62333814
Ni 10.23663101 17.13148215 11.64392894
Ni 10.92552135 8.49760437 6.94077842
Ni 7.40562306 4.04667580 8.58425173
Ni 8.61229212 8.05356113 6.99344029
Ni 16.20049010 12.31054586 7.87053577
Ni 8.71011513 16.29715661 13.08311791
Ni 16.01506704 6.59518230 16.02819572
Ni 10.03971728 5.23773457 4.29016584
Ni 9.70276159 7.60034649 15.00138640
Ni 7.12844200 3.13677062 1.16242406
Ni 12.44749707 8.82460103 5.23149437
Ni 4.64289915 2.46249133 11.90424442
Ni 5.18394645 8.46070425 13.28353966
Ni 0.15713052 7.60932567 12.44336175
Ni 1.51120617 8.03209513 4.16780873
Ni 8.54686003 6.03053960 5.89387272
Ni 11.14880220 9.91640623 9.81932723
Ni 14.78580973 12.43503659 6.30375840
Ni 9.50641276 10.08851606 12.06188037
Ni 6.23388608 5.77249835 11.01012711
Ni 9.18826809 6.79750061 12.18555830
Ni 1.03734185 5.56658850 12.18532062
Ni 12.27580438 16.94387173 2.35113876
Ni 10.22831121 14.09478205 10.15050017
Ni 13.97963993 11.64585381 8.52526338
Ni 7.54925110 8.04802297 1.87796421
Ni 7.24077616 15.89847853 6.39838450
Ni 11.49582400 4.80388869 0.34575265
Ni 6.43085789 12.22385478 8.63802211
Ni 6.31109338 15.66363510 13.80662531
Ni 6.67988630 6.51193912 4.92799596
Ni 9.71339138 8.12973489 9.17228257
Ni 7.50288958 10.25339010 1.23971846
Ni 8.44980209 12.24716014 2.15241856
Ni 14.01499933 0.11514267 7.57624966
Ni 10.85541448 8.74982171 3.11390016
Ni 4.06650276 12.78696053 17.09555197
Ni 9.27294163 3.60030100 0.05352891
Ni 10.51829137 17.06194942 14.03062771
Ni 6.60661098 14.04254809 6.80080470
Ni 0.98874994 1.44351861 11.47466017
Ni 4.21417915 12.10575273 1.91183774
Ni 8.31641996 8.03919978 4.41240088
Ni 10.85877969 2.17982399 0.08352417
Ni 1.96506047 14.18829914 13.18496670
Ni 17.27452474 12.32165022 5.33442412
Ni 17.08503810 10.40717973 7.50645596
Ni 5.39870435 17.03954128 0.05676504
Ni 4.91593126 11.56708796 11.36953598
Ni 11.99257803 6.75901883 1.67253741
Ni 11.09967859 11.29446876 11.46901648
Ni 8.53310325 12.21629941 4.74937216
Ni 13.64977011 5.05900677 16.23475030
Ni 16.56702532 16.58998523 14.68682875
Ni 2.64329849 4.67900795 5.49560101
Ni 12.49544506 15.83732182 8.13987433
Ni 8.66188374 2.50108665 15.93487528
Ni 1.91483786 17.56290764 5.52947720
Ni 3.50859788 3.65597523 2.90106766
Ni 8.67117761 14.80011532 3.08717415
Ni 8.46460921 15.07891851 8.48140531
Ni 11.59719979 15.43282063 11.08502630
Ni 9.13291241 4.03031774 6.54286902
Ni 6.69539777 13.51585088 4.48467108
Ni 12.81423097 11.26058024 10.32174292
Ni 5.44492680 15.99694504 11.71865632
Ni 10.66692503 16.55375345 6.92783611
Ni 0.23806504 10.88987542 0.37055737
Ni 5.95680638 1.43012741 0.44033727
Ni 6.26851393 12.28593466 0.20855368
Ni 7.30395713 0.95129601 15.68797331
Ni 9.93103380 10.06933180 5.06455413
Ni 15.16905946 6.48591397 3.45104053
Ni 7.94604513 5.51404727 13.54816221
Ni 14.63731331 15.60008380 0.95090175
Ni 16.42262898 13.13086145 16.59688902
Ni 1.84589405 1.16669245 15.07130735
Ni 2.21478395 0.08954585 13.11336987
Ni 7.13050763 16.48557889 2.05843565
Ni 7.64518312 1.85617884 3.16242022
Ni 5.05016767 4.23231986 8.12628272
Ni 12.76035985 15.69510248 17.54647109
Ni 5.38445671 8.17703534 1.50463115
Ni 4.79587037 6.57416559 9.29893331
Ni 5.96407578 5.68328817 1.74806687
Ni 6.95875330 0.06419538 13.36575825
Ni 10.61399355 14.46331196 7.86282526
Ni 1.45919509 16.02558945 9.58456077
Ni 11.33653396 3.79105083 5.75758349
Ni 11.43127224 2.52504381 11.09915693
Ni 9.24770871 3.80846009 9.57810844
Ni 16.15097564 15.26168940 2.34419269
Ni 5.95310168 4.45763994 3.71419365
Ni 13.48947632 5.03261590 0.85049127
Ni 8.79302947 1.01272870 13.95297475
Ni 5.63040989 1.44004031 4.63073613
Ni 11.54930210 7.18524707 8.83005530
Ni 1.68043367 10.78593191 4.99563922
Ni 6.51521165 7.29779799 17.46649362
Ni 11.78038662 16.77826097 15.78090534
Ni 9.67110891 2.34675776 7.83208814
Ni 12.27133870 10.98807132 15.01251221
Ni 3.67079083 1.14779706 3.82782190
Ni 11.96187305 0.61042991 7.66012682
Ni 15.29792463 0.94932799 14.17865881
Ni 8.23367276 0.06238422 10.70396294
Ni 14.13266219 3.49495723 8.01034146
Ni 16.31148208 4.20307885 2.09387644
Ni 13.80368534 2.65101254 0.20242959
Ni 13.68559874 1.73923511 11.85920920
Ni 16.45391999 13.29635685 10.20629771
Ni 13.69567870 10.95730476 4.64464967
Ni 14.78962616 10.74910757 2.91886985
Ni 10.49852014 1.11361484 2.36393073
Ni 16.99753276 15.14410917 17.39396683
Ni 7.19763711 13.20234169 15.09061888
Ni 11.35478967 4.56261698 9.23941409
Ni 7.63247854 9.81974667 8.69447445
Ni 14.80166659 17.38607817 4.83671158
Ni 9.60130259 10.40036617 7.38106486
Ni 14.14248384 13.75610504 8.17517367
Ni 11.93647626 7.08955655 3.86982423
Ni 0.09500132 9.17543512 5.14289385
Ni 7.06497572 6.12070726 7.64764346
Ni 13.04537992 1.54017679 9.49829317
Ni 14.68668157 5.42517209 14.08993015
Ni 15.22280409 9.23340866 8.62030914
Ni 14.40905631 16.50929173 2.82410277
Ni 5.53578562 9.09546768 15.95368163
Ni 13.86178846 0.77631963 15.94734567
Ni 15.82478071 9.65338420 12.59176002
Ni 6.18222133 11.21916651 15.87360233
Ni 0.44414130 6.03074430 8.37459618
Ni 13.76193949 4.12415550 5.68364079
Ni 15.16528957 13.35550820 1.44657738
Ni 14.21454680 7.64835441 1.99873122
Ni 10.55657310 15.79376105 2.79980086
Ni 14.05082120 9.67664751 0.94152745
Ni 4.72759083 4.37849614 15.76347280
Ni 11.11171415 17.39545722 4.39508879
Ni 4.07409686 6.69042935 12.28192373
Ni 7.68626342 16.73264000 17.51922655
Ni 15.08732600 10.23189078 6.44469061
Ni 1.05558211 10.44924235 2.61780109
Ni 9.04246841 13.75504044 13.97058259
Ni 9.83814353 6.98436017 2.01098757
Ni 3.70869105 4.45620024 13.95694181
Ni 4.15897052 6.92613704 15.09695809
Ni 10.13018965 14.84528602 12.40098839
Ni 0.93650445 9.78054357 11.97071981
Ni 8.37527211 13.30238171 16.93158775
Ni 14.10037298 14.12426512 3.64416497
Ni 14.18198709 0.03709236 0.22513835
Ni 12.82880616 17.29108032 12.26481986
Ni 10.20957080 10.51189045 13.96814625
Ni 1.82642050 10.00309004 8.07839397
Ni 12.75044891 1.13800056 1.19682050
Ni 11.18130540 12.50382917 13.84278201
Ni 8.77390448 17.18102066 3.08556915
Ni 5.56020891 8.28745868 6.80317443
Ni 2.74769944 15.53093162 4.86608110
Ni 3.09515135 16.91512398 3.07406185
Ni 12.65724640 15.46932944 4.22409644
Ni 5.25870564 14.12109482 14.90044831
Ni 4.97841056 6.09080214 16.98726642
Ni 15.42437364 3.24579854 10.73922418
Ni 14.28244227 12.80715591 10.43199083
Ni 10.89615097 1.60002898 13.16143066
Ni 11.21152771 17.32089875 0.18810838
Ni 9.04267806 11.31374398 0.10284531
Ni 8.76033753 11.32955672 15.51609677
Ni 16.31883329 16.97338245 0.93953059
Ni 5.21912290 4.33335590 12.54956318
Ni 17.35780994 1.39497831 9.67510029
Ni 10.87507696 5.53173007 7.10338183
Ni 4.74713857 13.59695461 7.74208038
Ni 14.58426368 8.69274992 4.59262893
Ni 12.47601664 13.02393930 7.18139242
Ni 5.14753060 3.79049229 0.41359952
Ni 13.83634209 16.69298285 14.30562587
Ni 0.38127437 14.23420473 1.44619242
Ni 9.05243392 3.15800653 2.12268018
Ni 15.31912680 2.35738966 4.43831368
Ni 2.43827702 8.55668593 12.70128582
Ni 10.23765587 5.73284110 13.73017189
Ni 17.27058889 5.99545243 14.02661931
Ni 14.52606537 14.08686106 16.84813838
Ni 15.51542402 7.66108666 13.39337659
Ni 10.83843920 12.87029177 1.43133898
Ni 0.04091631 0.99579870 1.16930193
Ni 3.64430352 16.06692347 14.07977092
Ni 15.63442719 5.50854919 7.20872927
Ni 9.65856910 14.46801885 1.12986487
Ni 1.62463833 15.04295569 16.92618419
Ni 10.61044424 8.37786974 13.19340807
Ni 11.27350991 5.05425974 15.76026775
Ni 13.10672901 9.69620062 9.06501321
Ni 1.11288324 0.16134318 2.98128182
Ni 15.19434681 8.11543146 17.41515403
Ni 12.81615873 9.37667038 2.87137833
Ni 0.12594642 14.61607299 15.16521130
Ni 17.55908369 6.63942069 10.60564198
Ni 8.05571473 4.65268430 11.33508407
Ni 15.18495802 16.89504238 12.54283126
Ni 12.44599237 13.83583516 9.40280965
Ni 15.37630789 10.54139247 15.41889965
Ni 16.24324481 14.91346504 8.53834207
Ni 10.31108135 16.57536231 9.34731443
Ni 15.96159258 0.32416291 16.36359004
Ni 14.98889649 2.28494346 2.06499276
Ni 11.73255635 8.60277316 15.20592017
Ni 17.45173681 13.77207185 12.97184682
Ni 12.22858688 13.57820323 17.20285528
Ni 17.41911693 3.80554419 11.25980138
Ni 1.13771831 11.84554981 6.98548737
Ni 2.76917442 10.86297995 17.04672431
Ni 16.65597860 8.92774559 10.64584984
Ni 11.78477226 3.57426005 13.60665319
Ni 16.81880358 3.64616261 8.57545369
Ni 8.35753546 1.87711607 9.56468848
Ni 15.80556646 5.27686770 11.96495734
Ni 11.43618239 14.41203002 5.55289735
Ni 16.19391410 3.44410348 6.49061403
Ni 14.19800824 15.12202558 11.11215941
Ni 9.37272046 3.59338478 13.92543687
Ni 14.90658463 2.89070929 15.82789377
Ni 14.44625962 3.19879017 13.64829376
Ni 9.42850952 11.17223280 10.04816249
Ni 10.79904431 13.60957030 3.44004537
Ni 8.74695922 7.47516975 17.17360939
Ni 1.93518807 8.67900759 6.33368191
Ni 16.99909542 13.95763844 3.73707456
Ni 5.10033277 15.62044146 1.73288277
Ni 16.50082927 10.67978867 4.05455681
Ni 1.45936918 16.47403880 15.16663296
Ni 14.09928851 12.38494896 14.79609154
Ni 12.26781995 14.52995020 2.17389075
Ni 0.14693954 8.53330072 8.49773699
Ni 7.53053947 0.27329709 5.52942115
Ni 16.02973466 11.08927095 9.77199733
Ni 1.28675971 12.68651846 3.07857253
Ni 1.96931240 5.95173086 10.20707221
Ni 0.91732211 14.65585040 5.28941223
Ni 9.34583863 1.47670831 4.30815625
Ni 8.46130862 1.26472821 0.78364891
Ni 10.91740974 14.84620674 14.72015115
Ni 1.27015519 4.65744982 14.37608372
Ni 9.57517348 9.48108786 16.14376803
Ni 11.50866050 11.09918771 6.37720369
Ni 16.06403724 7.17965502 8.75647799
Ni 4.59314590 15.00379426 3.76287114
Ni 3.13735043 16.84629857 16.46128734
Ni 11.00336420 2.99530391 3.77895375
Ni 17.41600299 10.60737604 13.69962287
Ni 17.05407246 2.20638901 3.04754968
Ni 16.42083887 9.45238319 1.69671211
Ni 13.04905952 11.61640539 13.02254016
Ni 15.09689301 0.55274541 10.30456300
Ni 0.94234481 17.41197279 16.86410461
Ni 5.45265180 15.53095916 8.44081204
Ni 9.42260454 16.70074757 1.16860042
Ni 12.24333075 13.43159303 12.07398981
Ni 10.38520198 12.79732553 15.93803336
Ni 14.05265797 9.21849113 10.97100139
Ni 8.86343091 12.81407469 7.85923931
Ni 8.94814867 16.22544129 5.01447862
Ni 10.51704409 1.12703931 9.73606238
Ni 13.93824810 9.44527324 14.16605505
Ni 9.61314234 12.79986004 12.16345206
Ni 17.55297336 11.73914677 11.47998102
Ni 16.22647943 15.58480118 10.68655737
