500
Final configuration Lattice="20.25000000 0 0  0 20.25000000 0  0 0 20.25000000" Properties=species:S:1:pos:R:3
Al 20.17425454 0.14160665 0.06766507
Al 20.23038453 2.20733806 2.03027229
Al 1.85982135 0.06290098 2.04970362
Al 2.00932884 2.09432280 20.16881690
Al 20.20660106 0.00463779 4.05756951
Al 20.15010492 2.04375492 6.01930728
Al 2.11349487 0.02422717 6.03400042
Al 1.96040358 1.95924105 4.10753546
Al 0.05155106 0.08128672 8.07735341
Al 20.24758697 2.05757083 10.06554963
Al 2.10181372 20.15433803 9.99748042
Al 2.00497136 1.99164478 8.19597724
Al 0.03463792 20.19220094 12.12716084
Al 20.17765166 1.98024307 14.04267594
Al 1.99941670 20.22054269 14.23161649
Al 2.00462912 1.87685075 12.03086252
Al 20.19757590 20.16864281 16.04571163
Al 0.08750149 2.00477564 18.08841775
Al 1.95521705 0.01777465 18.27584615
Al 2.00733209 2.08820503 16.11489965
Al 20.22342368 4.10422980 20.18233810
Al 20.19027642 6.08922833 1.98143760
Al 1.98992533 4.03900860 1.98198776
Al 1.95308643 6.08175449 0.07621188
Al 0.02311112 4.03915829 4.01059907
Al 0.03179198 6.02946528 5.97032890
Al 2.14653396 4.06042235 6.09174308
Al 2.15319804 6.02708850 4.07257805
Al 0.08141158 4.12791351 8.05968217
Al 20.19041160 6.05511433 10.15723098
Al 2.10994476 3.95451834 10.04121195
Al 1.96626387 6.07825248 8.07783105
Al 0.01563568 3.99421032 12.08595738
Al 20.10907718 5.99528336 14.17865762
Al 2.02072548 4.06205819 14.06909126
Al 2.04502001 5.97371555 12.22200861
Al 20.24009265 4.04831865 16.12369617
Al 0.01396799 6.13034973 18.23478821
Al 2.05143541 4.10160712 18.16791655
Al 2.05052758 5.99742284 16.19450133
Al 20.17954866 8.16873393 0.06456365
Al 20.17713675 10.02962959 2.08270901
Al 1.99566874 8.12830237 2.08768514
Al 1.95136724 10.12222228 0.08873049
Al 0.06309895 7.99845538 4.06503164
Al 0.03788477 10.13327376 6.17019851
Al 2.01094731 8.05767196 6.09010960
Al 2.01149626 10.00927684 4.03734784
Al 20.16002326 7.93267420 8.09635344
Al 20.21911710 10.18621336 10.09337792
Al 1.99278730 8.11818096 10.21630748
Al 2.01381261 10.08678324 8.10227610
Al 0.03392016 8.06927749 12.15731272
Al 20.24264695 10.07169878 14.09687940
Al 2.04643852 8.02289063 14.12591554
Al 2.10261699 10.14526241 12.14882887
Al 20.17146975 8.06378190 16.12042021
Al 20.16862408 9.96530675 18.11590912
Al 2.06405724 8.17693248 18.16913793
Al 1.97810061 10.04786813 16.14336601
Al 20.14847345 12.06366082 20.21524584
Al 20.14129335 14.18051811 2.03190016
Al 1.99996526 12.10472488 2.04399813
Al 1.84721565 14.10960447 20.06630175
Al 0.02505894 12.10250167 4.10061276
Al 0.09348569 14.23433009 6.15109421
Al 2.17113535 12.17837128 6.06890644
Al 2.02883202 14.15158445 4.04200812
Al 20.16019272 12.23638478 7.99462970
Al 0.11762657 14.26465076 10.16235963
Al 2.01289460 12.12239573 10.12803756
Al 2.08340886 14.17056508 8.06599019
Al 20.21273556 12.12811683 12.06565369
Al 20.19327666 14.25468182 14.12135312
Al 1.90197642 12.10276805 14.11375755
Al 1.94709164 14.23769559 12.16946986
Al 0.02482297 12.21236850 16.10511810
Al 20.13037171 14.18154365 18.20895513
Al 1.81267592 11.98390940 18.24772851
Al 2.02933350 14.21305757 16.23827952
Al 20.13579698 16.12288649 0.06523982
Al 20.20251311 18.20015630 2.09342533
Al 1.89214388 16.10380245 1.94224973
Al 1.96661836 18.36121103 0.09911519
Al 20.18526465 16.26271176 4.07368079
Al 20.22746310 18.26866980 6.13022025
Al 2.00509612 16.30918937 6.08377057
Al 1.98945099 18.27368528 4.05165735
Al 0.00241303 16.39123630 8.10176371
Al 20.14916172 18.34828385 10.07017690
Al 2.10036332 16.21802665 10.16341139
Al 2.07135033 18.29788312 8.10049679
Al 20.19212558 16.22743341 12.07855905
Al 20.14982779 18.11179518 14.10272352
Al 1.97491247 16.33508061 14.30956449
Al 1.86096476 18.14186802 12.09203828
Al 0.00443949 16.12880468 16.28336371
Al 20.18287778 18.18909988 18.36360078
Al 1.95408535 16.17658528 18.18501245
Al 1.89367704 18.21801728 16.26737774
Al 4.08545634 0.08334747 0.00994965
Al 4.05346488 1.99977502 2.07406082
Al 6.08370542 20.23764061 2.02249498
Al 6.05344422 2.12396877 0.04487125
Al 4.08662147 0.06537969 4.09018579
Al 4.03620233 2.04823953 6.01854248
Al 6.07586743 0.04066994 6.04774125
Al 6.05126880 2.03310053 4.11448277
Al 4.04661670 20.24536221 8.00198979
Al 4.02639673 1.91536316 10.15859040
Al 6.13826140 0.02556118 10.23536100
Al 6.11245837 1.90761989 8.14872040
Al 4.02395984 20.17733933 12.15698667
Al 4.14107136 1.95215828 14.13785701
Al 6.11367384 0.04025567 14.11469161
Al 6.16981572 1.96119823 12.08945196
Al 4.05674418 0.02056794 16.22542079
Al 3.91257334 2.01199911 18.15298173
Al 6.09962908 0.25314420 18.32676148
Al 6.20088256 2.04731571 16.22906029
Al 3.97051907 4.07076082 0.07031323
Al 3.99284726 6.09028644 2.00287709
Al 5.97299143 4.04765244 1.98955843
Al 6.07779088 6.07760640 20.23743164
Al 4.06790724 4.07364482 3.99778728
Al 4.14913408 5.89779332 6.09550964
Al 6.13021862 4.01243542 6.08079088
Al 6.06248522 6.10331712 4.05674807
Al 4.11378050 3.94198060 8.05772879
Al 4.01762510 6.14321070 10.15948712
Al 6.00990124 3.92450606 9.98615151
Al 5.95121412 6.08085693 8.12593222
Al 4.06584699 3.84375961 12.20037373
Al 4.00837268 5.97539357 14.14100248
Al 6.04516173 3.98753368 14.22228541
Al 6.09495468 5.94989010 12.09109161
Al 4.12080548 4.09814050 16.23641414
Al 4.03602067 6.09258139 18.22230005
Al 6.06036336 3.99857314 18.25723630
Al 6.22013272 6.11229908 16.27491125
Al 4.01618530 8.07900762 0.16074263
Al 3.98386573 10.09387009 2.08173577
Al 6.10542961 8.06357309 2.01060050
Al 5.99007585 10.01858576 20.22864540
Al 4.07389644 8.02466135 4.09203700
Al 4.04755500 10.10923000 6.08563064
Al 6.16965040 8.05631292 6.10307834
Al 6.20625423 10.09571250 4.08717148
Al 4.04024331 8.06330137 8.09013003
Al 3.98737402 10.04747548 10.06368797
Al 6.02596427 8.05119906 10.17621859
Al 6.03774878 10.11693595 8.07259788
Al 4.05740642 8.09035727 12.17322033
Al 4.02299874 10.09335194 14.12608728
Al 6.17469277 7.94179948 14.00789218
Al 6.11098549 10.16002415 12.17494432
Al 4.19069363 8.09316892 16.09105713
Al 4.04045986 10.04291023 18.15451179
Al 6.14131095 8.14793868 18.27144673
Al 5.96602980 10.13154336 16.22903165
Al 3.98897575 12.03575673 0.05473374
Al 3.95109934 14.24464467 2.03742764
Al 6.03299781 12.10806485 1.95652256
Al 5.98783126 14.06166045 0.09843424
Al 4.07723396 12.04971744 4.05754363
Al 4.12409513 14.18815564 6.07712231
Al 5.93449450 12.01427737 6.01515245
Al 5.98410245 14.16656093 4.05160331
Al 4.04884129 12.14335252 8.15491273
Al 4.09585573 14.26260310 10.23390781
Al 6.15463611 12.09043685 10.07582881
Al 6.04845789 14.08056084 8.07543642
Al 4.01780993 12.16113087 12.20844611
Al 3.96042494 14.03957554 14.22939247
Al 6.05415040 12.15197280 14.09381711
Al 6.10065334 14.22591939 12.20625049
Al 3.96475245 12.07623461 16.30464316
Al 3.98586359 14.13805875 18.22989177
Al 6.09988035 12.14550531 18.34077091
Al 5.97455260 14.24288414 16.16062544
Al 3.84428745 16.28501883 20.17435187
Al 3.97181609 18.24115659 2.05699699
Al 6.02651379 16.18384849 2.04004790
Al 5.89431534 18.30039247 20.18069242
Al 3.94888327 16.20976278 4.09931243
Al 4.14252529 18.26851894 6.07534364
Al 6.07741213 16.31060291 6.08312310
Al 6.11983553 18.28667189 3.99912277
Al 4.06917226 16.19795878 8.08902112
Al 4.13332068 18.30530422 10.17650234
Al 6.11167512 16.15962698 10.08571435
Al 6.12743559 18.29232772 8.14950772
Al 4.03126890 16.21412893 12.28036651
Al 3.98227624 18.17295128 14.22947423
Al 6.10483625 16.18201015 14.22062224
Al 6.15746349 18.25786478 12.16795537
Al 4.11905713 16.17358725 16.28778339
Al 4.00137466 18.26274335 18.24581378
Al 6.00334787 16.20632713 18.23654603
Al 6.12606757 18.31993733 16.29931029
Al 8.17156722 0.04061206 20.21347984
Al 8.22893341 2.02540535 1.99955796
Al 10.07250247 20.14367728 1.99488015
Al 10.03247583 2.12765477 0.01516355
Al 8.03122015 0.06763224 4.02759109
Al 8.16202121 2.08228939 6.01281003
Al 10.16213503 0.04864662 6.13211434
Al 10.06695664 2.04451645 4.02488587
Al 8.13406822 0.01812330 8.04483614
Al 8.21969496 1.99152421 10.07545673
Al 10.12458280 0.05675839 10.10978181
Al 10.17555745 2.03372543 8.00765162
Al 8.11671855 0.03323999 12.07696999
Al 8.07676131 2.01423306 14.07816817
Al 10.11195245 20.15375293 14.27201117
Al 10.24608414 1.93147373 12.04026369
Al 8.06949057 20.18252615 16.19825608
Al 8.02316467 2.14319535 18.27792668
Al 10.24436183 0.05817860 18.20401459
Al 10.03247031 2.01296033 16.09587867
Al 8.10277011 4.17503643 0.02620596
Al 8.09785961 6.11160667 2.01028042
Al 10.13745309 4.17634392 1.99797085
Al 10.18229353 6.05032809 20.23938726
Al 8.04916060 4.02385643 4.00516034
Al 8.14994805 6.02644835 5.99878572
Al 10.17132050 4.16666594 6.06178566
Al 10.12463258 6.13759575 3.96664457
Al 8.12508639 4.17737387 8.01058665
Al 8.09015285 5.99200494 10.13698717
Al 10.17718614 3.97572200 10.02102797
Al 10.26972162 5.98520299 8.14654327
Al 7.97791805 3.97269032 12.06257648
Al 8.25514854 5.97556395 14.15992301
Al 10.17008149 3.98581890 14.10176500
Al 10.19015239 5.86057668 12.01006218
Al 8.12665929 4.12736383 16.28776854
Al 8.19157441 6.18593530 18.27320720
Al 10.01267192 4.01576637 18.14193473
Al 10.26508144 6.00538935 16.22879604
Al 8.17109551 8.17179569 0.03481602
Al 8.06079471 10.16601438 2.12607001
Al 10.15404447 8.14100979 2.12928355
Al 10.03969562 10.09055281 0.05663378
Al 8.08815726 7.98116433 4.06482630
Al 8.08379765 10.03682488 6.16533309
Al 10.23973073 8.12753945 6.17220186
Al 10.16514061 10.04069712 4.12865304
Al 8.07699655 7.96519156 8.07164837
Al 8.17126496 9.99814420 9.96144116
Al 10.24892333 8.13949815 10.09263167
Al 10.21095528 10.14047259 8.14361480
Al 8.21257889 7.92437526 12.09635749
Al 8.04141287 10.25658734 14.23608210
Al 10.11881221 8.15369923 14.16270812
Al 10.19811288 10.08487745 12.12042254
Al 8.20957988 8.06039680 16.18078783
Al 8.07820989 10.11463383 18.28308408
Al 10.17100684 8.13771276 18.24066189
Al 10.08161284 10.11164186 16.25618821
Al 8.17569326 12.17768596 0.08873877
Al 8.08580720 14.12415856 1.97652591
Al 10.08060917 12.15761857 2.16960901
Al 10.11639654 14.21882122 0.00740663
Al 7.98686143 12.28772253 4.15659826
Al 8.00369246 14.16723255 6.12003984
Al 10.14438754 12.15069408 6.11622537
Al 10.08558558 14.28297679 4.03310381
Al 8.11296019 12.04233617 8.06020402
Al 8.16114956 14.20945550 10.04640859
Al 10.04134552 12.19361758 10.06909225
Al 10.22647852 14.19587280 8.16199939
Al 8.24006979 12.00156089 12.11128411
Al 8.04676746 14.05838353 14.14865429
Al 10.12451292 12.11913963 14.23519971
Al 10.20979440 14.16826122 12.19179961
Al 8.09299795 12.09878703 16.32808952
Al 8.08376722 14.21912342 18.32329382
Al 10.20038878 12.25556395 18.20571241
Al 10.15212867 14.07756290 16.23673323
Al 7.94202937 16.15858525 20.20706497
Al 8.00618909 18.24406193 1.91263628
Al 10.07544462 16.13738497 1.96423800
Al 10.10569118 18.22937084 20.24539679
Al 8.06312374 16.15778781 4.00845295
Al 8.16560989 18.31519786 5.93069340
Al 10.07885109 16.22498736 6.05592180
Al 10.11665438 18.19990635 3.93625017
Al 8.07648757 16.22489534 8.10289897
Al 8.09216407 18.21266476 10.12338044
Al 10.22670639 16.21954658 10.05622640
Al 10.18898673 18.17102471 8.01599530
Al 8.15958626 16.26473104 12.12411061
Al 8.09135317 18.15453248 14.24993528
Al 10.24025096 16.20566055 14.20431937
Al 10.12119965 18.28138108 12.30559900
Al 8.17744467 16.07354538 16.24822478
Al 8.01714136 18.30488044 18.22225945
Al 10.16679785 16.10701302 18.28976432
Al 10.12789192 18.24361638 16.34868574
Al 12.15073444 0.03273991 20.22576821
Al 11.99941579 1.96018430 1.93811571
Al 14.17267746 0.03632420 1.91484235
Al 14.33591036 2.11458710 0.08656922
Al 12.14734503 20.18580891 4.04246533
Al 12.12652181 2.00494823 5.94425562
Al 14.20908598 0.11067097 6.19027124
Al 14.16005823 2.02188098 3.96693201
Al 12.16267593 20.18691032 8.07071535
Al 12.15026618 1.86998271 9.97009674
Al 14.17928556 20.24233529 10.12311707
Al 14.12838656 2.00282317 8.17475655
Al 12.19506426 0.08630333 12.07622704
Al 12.08213034 1.98261820 14.07283949
Al 14.21367576 20.15356399 14.21573633
Al 14.25674229 1.91364146 12.21016919
Al 12.28276726 0.11409899 16.21037944
Al 12.21714028 2.13248038 18.35551036
Al 14.15226806 20.22691906 18.30696482
Al 14.19517391 2.02358896 16.27713947
Al 12.13653838 4.03491022 20.24924261
Al 12.22552645 6.12819415 2.04395035
Al 14.22611364 4.04134671 2.04596636
Al 14.28353384 6.07611234 0.09907795
Al 12.18373260 3.93530171 3.97274105
Al 12.22396668 5.97462695 5.91318548
Al 14.17621665 3.92060897 5.98288935
Al 14.23755649 6.07859121 3.96546006
Al 12.35948914 4.17318573 8.16183434
Al 12.23958868 6.08123672 10.15629608
Al 14.34958995 4.05113206 10.14804493
Al 14.17633068 6.16493714 8.04555367
Al 12.23348523 3.96455374 12.04137160
Al 12.20353604 6.08221526 14.05620568
Al 14.25641364 3.95091598 14.12416015
Al 14.27757196 6.09457022 12.17293347
Al 12.21864218 4.04533038 16.17159622
Al 12.09700819 6.01217875 18.27897290
Al 14.31261735 4.08638787 18.21213036
Al 14.14484251 6.14142074 16.15236614
Al 12.15745472 8.10643236 0.00638427
Al 12.17663263 10.09184429 2.10736033
Al 14.37160130 8.14204691 2.00774579
Al 14.21258425 10.10680163 0.04687340
Al 12.34293162 8.17472045 4.17926079
Al 12.17860030 10.15589293 6.09492346
Al 14.23531910 8.12645710 6.12141281
Al 14.35595994 10.14458182 4.02600007
Al 12.21363066 8.14343902 8.07124499
Al 12.17854410 10.15766319 10.17647379
Al 14.25530056 8.08573151 10.25376723
Al 14.23746313 10.13735812 8.17839227
Al 12.24646824 8.05982904 12.20714178
Al 12.09421961 10.14854905 14.16580375
Al 14.15477802 8.14531620 14.26772478
Al 14.12378757 10.18409349 12.15197454
Al 12.07240577 8.06740020 16.14041490
Al 12.13177443 10.08755360 18.25931336
Al 14.14038411 8.13467189 18.19038387
Al 14.18616800 10.16561854 16.28018110
Al 12.07038585 12.12661748 0.23000233
Al 12.12043825 14.18067993 2.08351761
Al 14.12191652 12.19671064 2.14730376
Al 14.23313873 14.13347569 0.20346036
Al 12.08366256 12.20010712 4.10005544
Al 12.06520797 14.24361039 6.02820908
Al 14.27655407 12.10090874 6.04477698
Al 14.10300404 14.17213917 4.13823035
Al 12.18579281 12.20479992 8.09549350
Al 12.17826186 14.10842936 10.08502449
Al 14.24802694 12.12039258 10.05209453
Al 14.21082734 14.24667131 8.03868707
Al 12.12631460 12.09673217 12.14319111
Al 12.11253308 14.09743463 14.24325015
Al 14.14334660 12.14921906 14.08722170
Al 14.11039829 14.22691643 12.19518862
Al 12.19982212 12.24742596 16.22993439
Al 12.19935496 14.19456635 18.29627391
Al 14.18451620 12.21924914 18.38963531
Al 14.23241678 14.24478879 16.10847309
Al 12.13078740 16.15804106 0.11269130
Al 12.17846836 18.19731178 2.04617657
Al 14.16253958 16.13837254 2.07729251
Al 14.18668543 18.12434938 0.02650498
Al 12.22211831 16.13813985 4.05081168
Al 12.17813179 18.26261301 6.02703230
Al 14.23600113 16.24371202 6.11031874
Al 14.15911403 18.23535917 4.12130324
Al 12.19894462 16.26922520 8.07320242
Al 12.12703625 18.27895410 10.15076060
Al 14.14948914 16.23606462 10.12396024
Al 14.18537671 18.30247200 8.04870131
Al 12.03381934 16.28461943 12.19924436
Al 12.14637610 18.37174825 14.21314157
Al 14.07361451 16.22645163 14.09914734
Al 14.18924032 18.26914693 12.23354062
Al 12.20651811 16.28120365 16.21676554
Al 12.22158735 18.27081849 18.26612787
Al 14.15231082 16.12608715 18.34504128
Al 14.17576337 18.16342951 16.27947620
Al 16.17320763 0.07390223 20.13678761
Al 16.14768200 2.02787788 2.06285659
Al 18.11283287 0.10885250 2.05564806
Al 18.14982133 2.02041526 0.00286096
Al 16.17379567 0.08776494 4.13488378
Al 16.27085403 2.09259857 6.11430789
Al 18.23118311 0.05316019 6.07181989
Al 18.23151019 2.07121524 4.10364067
Al 16.26150408 0.08973699 8.14112918
Al 16.26253435 2.05383828 10.12139013
Al 18.21238432 0.18247474 10.05682938
Al 18.19862795 2.05072511 7.97960105
Al 16.25152122 20.10866392 12.13635289
Al 16.24736265 1.97774569 14.28298460
Al 18.17964937 0.04313918 14.21719658
Al 18.10531184 1.99926347 12.20531784
Al 16.24611437 20.03817607 16.29850362
Al 16.17766380 1.99210670 18.13503435
Al 18.25330629 0.06758325 18.16842118
Al 18.26982206 2.01729520 16.14639013
Al 16.26605133 4.17873011 20.12066454
Al 16.23052108 6.09012360 2.08668456
Al 18.14218553 4.07163468 1.96170252
Al 18.18880874 6.08010886 20.10783167
Al 16.12243822 3.97458778 4.06219216
Al 16.09928264 5.96471890 6.01060707
Al 18.11591198 4.13958595 6.04280203
Al 18.17153757 6.10184519 4.02001949
Al 16.11538275 4.03925633 8.00050420
Al 16.23390943 6.07322884 10.09302407
Al 18.11543372 4.00303726 10.26303413
Al 18.19963809 6.02019587 8.12349099
Al 16.16963990 4.03940381 12.18554570
Al 16.16015975 6.07214001 14.26755047
Al 18.25960629 4.06379158 14.16769102
Al 18.15103291 6.07098705 12.15053657
Al 16.18638099 4.08250655 16.19342963
Al 16.19759113 6.14517123 18.15193156
Al 18.24211219 3.97431984 18.11756090
Al 18.24476645 6.03260140 16.24410578
Al 16.26476015 8.03298341 20.10285669
Al 16.24023928 10.10327810 2.02855184
Al 18.20907636 8.04935996 2.00536091
Al 18.20571537 10.06668499 20.18643852
Al 16.21330785 8.10103849 4.13766592
Al 16.29652636 10.08964806 6.04727647
Al 18.24202225 7.96108616 6.09396254
Al 18.15805204 10.00668963 4.13772100
Al 16.19370024 8.15141872 8.04826169
Al 16.19002771 10.15670046 10.04072875
Al 18.13426229 8.05411002 10.08443725
Al 18.21334493 10.11009467 8.06701403
Al 16.18225088 8.10325745 12.14457081
Al 16.18961931 10.07732032 14.15272093
Al 18.08783023 8.05038693 14.09375159
Al 18.17444695 10.12697872 12.07530591
Al 16.33744003 8.09115298 16.21311888
Al 16.18423688 10.23949466 18.29450077
Al 18.18850051 8.15960128 18.16031680
Al 18.21213038 10.19719693 16.14017810
Al 16.21161012 12.31538846 0.04151293
Al 16.25375747 14.19789510 2.24364876
Al 18.27316420 12.05796638 2.06023986
Al 18.26264206 14.12719347 0.00075739
Al 16.38091818 12.18300298 4.11142929
Al 16.23324475 14.15586256 6.11596316
Al 18.29411954 12.28948013 6.06897924
Al 18.23610739 14.25463733 4.13539484
Al 16.31510191 12.19002606 8.07154048
Al 16.18309917 14.16133736 10.05448782
Al 18.26212427 12.19767161 10.07156249
Al 18.28086451 14.35822655 8.06628357
Al 16.23595746 12.15494822 12.25536310
Al 16.16300458 14.21562247 14.13183829
Al 18.35770876 12.15306604 14.17794002
Al 18.15085708 14.13628555 11.96846184
Al 16.19981108 12.14621406 16.23294987
Al 16.16699570 14.22192465 18.24143935
Al 18.24927391 12.21360326 18.20659776
Al 18.18962913 14.32014637 16.20401677
Al 16.13145008 16.08000338 0.06442882
Al 16.10355503 18.35847229 2.01162766
Al 18.09796443 16.19045323 2.09255043
Al 18.16423526 18.23509303 0.06398545
Al 16.20192295 16.24653634 4.11211287
Al 16.18601985 18.27740158 6.12774718
Al 18.22937330 16.31710492 6.10664875
Al 18.19218699 18.29650266 4.04784620
Al 16.24445531 16.27033642 8.11535386
Al 16.17352097 18.22536845 10.11545936
Al 18.13550358 16.27629009 10.11711584
Al 18.17016745 18.32468839 8.09880028
Al 16.17583608 16.23203951 12.15773885
Al 16.30868910 18.21232035 14.17478169
Al 18.20208726 16.11920874 14.15813201
Al 18.23762554 18.20561156 12.08975318
Al 16.12449185 16.23380474 16.11839301
Al 16.29728630 18.21561134 18.27766619
Al 18.09921317 16.12206559 18.24625724
Al 18.26967759 18.12385704 16.21543867
