500
Final configuration Lattice="18.07500000 0 0  0 18.07500000 0  0 0 18.07500000" Properties=species:S:1:pos:R:3
Cu 13.95305832 16.23995288 6.78582333
Cu 17.62537780 2.48465128 0.33852269
Cu 12.96798642 17.83863922 7.88728575
Cu 9.17549394 11.62926759 1.00161332
Cu 3.88426724 11.22260955 14.13067599
Cu 3.61798707 0.41148105 7.22876935
Cu 15.67724334 6.55158623 17.50546415
Cu 12.82025446 15.18687093 1.38052100
Cu 1.60878883 8.80970903 16.78256448
Cu 3.60693454 6.39683772 11.44220908
Cu 7.12911862 0.88535386 10.04407502
Cu 5.53713698 13.51995695 7.60150327
Cu 1.29569062 17.42932225 15.07417843
Cu 17.34611976 4.35077271 4.70475331
Cu 15.38143202 12.86192880 4.78148456
Cu 12.05964920 17.21247269 1.91322193
Cu 6.28317691 5.61959375 16.90577635
Cu 1.83081338 0.47842376 12.88831964
Cu 7.27511845 13.05414811 15.08583342
Cu 5.99865730 4.38596378 13.27922276
Cu 16.49580051 14.71759754 8.43004002
Cu 14.24903208 4.84201397 3.29429899
Cu 0.41574987 3.55913647 8.34397231
Cu 12.00553445 10.92529021 10.16244227
Cu 14.87403689 16.71044363 8.85270966
Cu 0.48269097 2.32179091 12.49914636
Cu 18.02438382 3.13562042 16.29247107
Cu 1.18735201 15.08678402 5.20503822
Cu 13.25242348 2.80607517 16.14616936
Cu 13.28149428 5.20621415 12.95424086
Cu 5.24598248 1.86974474 12.09789623
Cu 14.96822850 0.93131245 7.77433202
Cu 7.41936947 5.77556997 7.96032256
Cu 11.73104514 7.23029412 6.60439447
Cu 1.17012252 14.87314008 14.27427402
Cu 17.92509216 13.17106513 1.23599920
Cu 15.87249716 2.73435432 15.80859477
Cu 13.97032543 2.69549628 12.20177104
Cu 1.02315975 8.63438620 1.07184054
Cu 2.57171049 16.76528797 16.96077251
Cu 11.58680030 11.79095720 2.06287609
Cu 3.43999507 3.95336235 1.92524428
Cu 13.38068187 4.91806285 5.16406056
Cu 14.53761167 1.55403714 14.16611555
Cu 7.25864898 3.98370463 11.23598200
Cu 10.67675030 15.46825941 0.93643142
Cu 1.52177919 2.48871359 1.30895221
Cu 8.02408916 17.69105289 12.44609517
Cu 3.66099635 4.10482520 15.27058111
Cu 17.09421598 4.95013664 7.31339110
Cu 14.51079004 14.15338604 9.84827618
Cu 1.24856028 5.50798004 7.42757228
Cu 1.03686985 6.16473592 11.18397390
Cu 0.57009645 3.80444760 10.75383476
Cu 11.65473349 2.51174114 11.25898944
Cu 4.64174760 16.24723802 16.32496941
Cu 8.27145052 7.88750151 1.53965048
Cu 5.65950811 2.37682089 15.70103253
Cu 12.26192318 3.88340946 2.24438648
Cu 2.41211757 4.30792034 17.59228165
Cu 10.62449373 4.85826649 0.51480396
Cu 5.97379517 10.00731518 12.87233379
Cu 5.42231819 13.72701008 1.83695902
Cu 10.90768589 14.70952671 13.35766721
Cu 5.42601460 6.63982623 7.55558662
Cu 10.18238781 2.59253002 2.92820513
Cu 8.32742767 9.29736353 17.78754152
Cu 12.54052875 10.09922476 1.05062067
Cu 10.40699466 2.18652884 7.22569255
Cu 5.59777441 3.95851891 6.28096786
Cu 9.56805474 13.40812045 15.38569845
Cu 1.42304715 4.98963992 1.35346315
Cu 16.97443518 16.29710730 6.81235745
Cu 11.10802251 0.45205813 11.71393920
Cu 1.73942918 11.49610485 3.24538593
Cu 0.72666088 7.80813965 3.06859808
Cu 16.30030141 9.20724908 12.86292771
Cu 3.52928982 2.17114558 6.04437258
Cu 4.28774980 15.75865048 4.64132692
Cu 4.20009610 14.91926387 6.82685062
Cu 13.58807757 8.04628874 0.69626964
Cu 0.78649785 13.47147382 3.23681015
Cu 8.85594233 0.29432742 6.80060192
Cu 3.51671847 1.73968589 3.12781668
Cu 16.25394997 9.24415952 7.82789347
Cu 13.69790359 11.10862574 2.74542221
Cu 5.21026304 17.14542957 5.98986950
Cu 2.36085181 12.11299043 6.91260184
Cu 13.66486472 6.86974262 11.49175758
Cu 11.41628326 16.16492308 3.86822427
Cu 17.17024635 0.98961887 15.91032565
Cu 3.62566697 17.44427189 12.41622329
Cu 0.60274168 10.76217702 6.94608379
Cu 16.88671700 11.36840305 11.89532591
Cu 12.59990562 3.89167009 7.38030908
Cu 8.49862662 15.43451669 6.80959776
Cu 8.06534325 1.47189679 16.05863948
Cu 0.12507620 13.48338061 8.09328519
Cu 7.50562955 10.29375524 15.15828339
Cu 4.05395696 5.46640140 8.36308694
Cu 3.26510158 6.39876243 14.35747560
Cu 3.35122734 17.03939615 14.61792303
Cu 3.06457558 13.54950188 11.09747825
Cu 15.19172583 6.21343019 13.92445568
Cu 6.38637938 0.57331334 3.38447117
Cu 11.17499501 1.69267970 15.27960078
Cu 11.21281266 3.16485963 5.26678338
Cu 1.19234207 4.33321363 12.75650826
Cu 8.09761755 17.48803582 14.90466917
Cu 15.27165585 1.27444421 0.73073133
Cu 17.67144843 10.26888046 16.72955303
Cu 8.37116727 1.53159282 11.51140953
Cu 17.65234404 0.34123802 3.80442748
Cu 17.01405284 14.95529964 3.65953776
Cu 14.92750052 2.94522735 5.44335438
Cu 3.78303689 15.06420401 2.29817388
Cu 2.16010315 2.24611095 9.71127927
Cu 2.02883343 11.92849634 9.18685876
Cu 17.07894089 16.66097726 16.49660974
Cu 9.21505983 7.52234246 13.74665298
Cu 4.91392335 7.33342223 13.29214921
Cu 0.88574958 14.64659041 17.03241345
Cu 15.23764348 12.49004062 11.07693395
Cu 16.93839663 17.06650457 8.92258281
Cu 10.39101162 7.35887375 2.51800092
Cu 13.87186161 13.47470849 14.19731894
Cu 9.06384741 3.97864011 7.61132839
Cu 2.14030456 6.60995220 0.52351220
Cu 11.12133058 9.64920141 7.45059048
Cu 8.46674903 9.54426898 10.14543837
Cu 17.45795624 3.73805313 14.10687038
Cu 2.99885516 2.40814734 16.88753604
Cu 3.93823205 4.31866275 13.00497110
Cu 12.75067650 6.21843744 9.40821563
Cu 10.05893530 13.58692404 11.31580666
Cu 12.33143061 1.66224354 2.29959823
Cu 5.92996897 17.85969632 11.63595496
Cu 13.34010256 12.04058668 5.93997575
Cu 1.06449549 12.78170571 15.74337324
Cu 4.43415510 4.30502530 10.39468962
Cu 6.35408939 15.25839792 5.57449552
Cu 5.20064634 13.93059504 3.84749664
Cu 12.89960332 9.20001860 5.22398342
Cu 7.95685276 9.21014762 5.66300349
Cu 14.30491955 8.24693911 13.22216073
Cu 16.14447693 16.55784383 1.95515217
Cu 10.55441800 9.65900243 3.09891234
Cu 12.52082849 6.51976033 4.37620248
Cu 3.14870927 3.37058289 8.20376721
Cu 1.86337593 14.26087509 7.07442164
Cu 11.66703966 0.53857578 4.46232850
Cu 9.77871722 11.19135551 16.27855477
Cu 3.43742136 10.02400561 3.32985371
Cu 5.25503829 7.28780381 15.62985067
Cu 11.13242889 16.16243357 11.73127409
Cu 13.98795486 3.47170751 10.11703213
Cu 15.78630835 17.20229114 11.12002015
Cu 11.86158256 7.98955288 8.69699149
Cu 7.24554145 7.89282213 9.16737281
Cu 3.16419132 1.07228431 14.81852639
Cu 12.04558590 9.09500380 17.06785502
Cu 8.98690148 4.10294237 13.12893721
Cu 10.84064836 0.11599250 17.37077262
Cu 11.30847803 7.07801392 17.97403064
Cu 4.97767685 15.26093168 9.57134543
Cu 17.21294711 10.87946942 5.39821591
Cu 10.62791544 13.36712503 9.37155119
Cu 6.67345782 3.36926513 9.06478902
Cu 1.28806610 7.92767854 12.60790476
Cu 4.53302284 2.16976520 9.94329931
Cu 6.55122747 2.01106555 17.99441485
Cu 4.38314690 10.75569419 7.31162496
Cu 12.57609831 15.86249305 8.57121105
Cu 3.81097756 5.62401361 3.26330743
Cu 7.12343268 17.54508328 1.30334483
Cu 4.94684582 11.55390994 2.69382613
Cu 16.11597456 11.96166250 7.37699765
Cu 13.07879717 17.01308987 5.06876280
Cu 16.26340837 8.76731742 18.02198267
Cu 7.67232609 6.14188597 14.65995376
Cu 14.06129933 10.30133642 8.00334621
Cu 9.35827091 8.80653515 11.96441989
Cu 15.16153171 17.96824619 6.01971113
Cu 9.05687602 12.68913945 5.42275203
Cu 5.15234107 2.31918074 7.58004510
Cu 3.15583319 13.25665743 13.39161891
Cu 10.77998220 9.25465843 10.12513429
Cu 17.34319870 15.58317965 13.49776209
Cu 14.26602173 8.92870829 16.62377318
Cu 17.35878139 3.45558534 2.19260511
Cu 13.73682974 11.64570653 0.36522154
Cu 8.91648723 8.55161871 3.72010238
Cu 14.94841533 15.03275883 4.71502086
Cu 2.90287152 8.24324225 10.58803221
Cu 17.76185122 7.18273007 0.50990267
Cu 2.84496851 9.85371112 0.67960917
Cu 5.58607948 0.09868205 14.23808445
Cu 8.43313464 17.26865126 8.56605272
Cu 6.74093010 17.27552138 17.17468103
Cu 2.27385606 16.39460746 3.95701337
Cu 2.39362631 16.68316447 1.60219958
Cu 7.65946835 2.47675486 7.04992606
Cu 10.09201495 14.55887954 4.51517695
Cu 6.57976475 15.53390815 1.03915671
Cu 17.60131487 0.66048894 1.67563444
Cu 2.22376026 9.79936770 8.40895301
Cu 10.08206680 10.47077246 5.66682058
Cu 10.81582051 0.98927565 1.21647496
Cu 15.88114921 7.88855488 15.63598524
Cu 7.91944344 13.15741641 7.63629461
Cu 10.45634155 12.71600023 7.44707408
Cu 4.64266223 12.15551744 10.64300338
Cu 12.49918339 8.69381754 3.00378240
Cu 8.50818274 14.23081082 1.30532886
Cu 8.38892137 12.36823530 9.50149679
Cu 1.48631410 1.70462125 7.20778326
Cu 15.11875895 8.23236412 5.32809304
Cu 14.61919429 1.17156926 2.80905892
Cu 2.34737355 3.01078801 13.88585608
Cu 5.79004573 8.81292465 17.47833001
Cu 3.76620539 11.89468703 4.96062969
Cu 2.86343728 8.63484162 14.70910009
Cu 12.11165417 14.22565198 11.27655648
Cu 13.55128034 16.18119927 10.76391002
Cu 5.21126743 8.23397034 6.23205381
Cu 17.95969152 5.39415157 9.50510519
Cu 12.98529858 7.16483806 16.57352279
Cu 6.52374648 15.48221759 7.81547193
Cu 9.35365673 5.60514266 9.24400628
Cu 11.18314399 11.63257686 17.75120312
Cu 9.51406578 1.26743503 13.80169517
Cu 7.60408397 7.57471000 16.52475543
Cu 1.29012862 0.94480423 16.88466461
Cu 4.69876156 8.42391875 8.91537978
Cu 14.89297495 3.19043138 2.36764248
Cu 3.77404004 13.58633706 8.95071147
Cu 9.27588272 0.62599253 3.28942372
Cu 10.51165780 17.75560927 14.86293083
Cu 16.62713274 5.41167367 15.86361080
Cu 1.84287515 17.86536798 8.28625410
Cu 12.40010662 11.57886456 14.34979418
Cu 16.82139830 2.66237145 6.41573634
Cu 9.99115867 8.99858239 15.98264361
Cu 17.20448740 7.68365894 11.43432503
Cu 4.81517834 0.09331177 9.76386242
Cu 1.52603589 0.42892285 5.20936924
Cu 10.10260466 11.01870893 9.17624211
Cu 0.44307031 6.39574701 13.83390777
Cu 10.93529975 5.35128926 7.64825801
Cu 0.97539512 3.61294581 6.25063591
Cu 9.37291473 6.51978374 17.97500566
Cu 13.17529286 10.73773894 16.47655384
Cu 6.40885411 15.32789796 15.79194157
Cu 7.13041500 11.77264505 11.07697151
Cu 9.56037659 16.68780858 13.25657429
Cu 8.39029152 15.15065187 14.81751420
Cu 16.98018490 5.55287344 11.51164883
Cu 12.15914129 1.17299832 13.63835235
Cu 11.32852613 8.00698377 12.99531773
Cu 14.41105986 0.61114625 9.88624318
Cu 7.31807627 12.52176489 3.14053331
Cu 0.95207953 8.33217873 7.34096606
Cu 9.56642392 2.81988797 0.58003237
Cu 6.53545174 13.55918173 9.41070536
Cu 2.72014121 0.20963207 10.27508819
Cu 9.97676940 7.50067233 7.91019560
Cu 11.66332647 5.04614258 11.30904868
Cu 7.20432993 9.47536402 2.06586505
Cu 2.48057777 16.51072433 6.64399036
Cu 0.84402723 10.01484864 12.18039892
Cu 0.03102772 10.33924365 3.53125571
Cu 5.94686659 15.99232058 3.17321361
Cu 0.12147398 4.86058655 17.55102753
Cu 2.14656458 12.86936387 17.84477011
Cu 10.65040793 6.52579576 15.82457079
Cu 13.01093770 1.69969380 6.52092542
Cu 8.03129716 4.11156498 17.39554325
Cu 3.34052431 7.09202082 16.72453404
Cu 5.83608097 13.79327911 17.35825367
Cu 16.53256073 7.87158820 2.17202731
Cu 16.98241363 13.74938230 6.23522686
Cu 7.53592067 17.18614239 5.28612917
Cu 4.77452786 9.77152986 1.27804280
Cu 17.08095017 7.09402927 8.34344809
Cu 15.60857182 9.87285351 3.91817997
Cu 7.42614829 1.84842608 1.89098693
Cu 0.48159453 17.13582443 0.38345989
Cu 14.65562504 16.88253547 17.91399716
Cu 17.02240127 13.61568270 11.99786758
Cu 14.68234567 14.81309334 12.05659631
Cu 12.89630473 1.83004797 8.83050152
Cu 4.91913785 7.60661344 3.11304733
Cu 13.09375015 13.89204837 8.24622059
Cu 10.87516237 8.16273977 4.76135975
Cu 15.85988431 4.17232185 17.90094047
Cu 6.78275872 7.71132688 4.56091182
Cu 16.66799712 13.12217042 9.71990936
Cu 5.36329459 1.28809601 1.58826924
Cu 12.50979842 9.02530362 11.31116670
Cu 15.93118990 11.65517773 2.12893957
Cu 5.12753530 10.01467173 10.56432542
Cu 1.21438831 10.37958057 14.54221564
Cu 0.91676268 2.24065998 4.07396026
Cu 16.88773708 1.56396802 9.08092053
Cu 0.82006486 16.88785477 10.11162318
Cu 12.21569741 11.70767258 7.99184238
Cu 10.22317757 0.95821828 9.41675196
Cu 9.40038101 2.97384635 10.00367471
Cu 4.52407424 0.56423957 16.21876646
Cu 4.06537986 15.34471790 12.56186186
Cu 14.59279171 2.93210499 7.55369637
Cu 3.21899554 14.99892303 14.90271666
Cu 4.52796409 12.25162422 0.32818872
Cu 18.01811807 0.24494287 7.31464148
Cu 0.95485602 1.55345849 14.52292860
Cu 0.23948286 6.90860836 16.21681381
Cu 0.76671934 12.67578703 5.30891406
Cu 8.67483944 15.12724350 17.34202854
Cu 13.57011402 16.05815322 3.34108519
Cu 9.82175443 5.19849166 2.75346417
Cu 12.92601102 14.73807570 15.90113616
Cu 18.04397228 8.79332625 14.61809910
Cu 1.08082048 15.17819029 2.29888440
Cu 3.60746186 17.86984416 4.76753204
Cu 14.90076520 4.91208119 11.70586012
Cu 16.94017288 15.50988076 10.48805699
Cu 17.67222972 17.31071154 12.17473974
Cu 17.06728005 17.53859731 14.37226323
Cu 6.63255689 5.48406690 3.48640788
Cu 8.92449733 15.36578190 11.68286983
Cu 8.52977772 6.43726188 3.87650943
Cu 16.62072306 3.58169859 11.56722877
Cu 9.51289710 11.20098138 11.39912275
Cu 14.26328457 7.16926469 3.02463997
Cu 5.74573838 7.49350395 10.59913307
Cu 7.42661567 2.28781436 4.62935849
Cu 4.50235507 10.59594874 17.12560816
Cu 6.21979594 10.12648265 4.09995080
Cu 6.90200230 15.48092531 13.32866783
Cu 12.89524670 15.70173174 12.99186969
Cu 14.10164367 5.11695495 0.88332017
Cu 10.41790647 3.92136776 16.25930831
Cu 8.84311153 17.16448355 16.76441648
Cu 0.99152543 14.31998690 12.13294762
Cu 7.12620448 5.38603474 1.05755423
Cu 10.56567381 9.20066223 0.80212301
Cu 10.78884917 15.56572722 15.58346853
Cu 10.02738599 13.41391077 17.54645612
Cu 9.63291128 9.92543928 13.80667320
Cu 15.35170011 17.80107451 15.46299324
Cu 5.87770508 14.70058884 11.37747724
Cu 2.74865919 16.01129739 9.00341875
Cu 6.33110761 11.13423198 6.20686591
Cu 4.41353059 17.46975779 2.52829683
Cu 11.96182965 17.51549624 9.84507112
Cu 10.20035931 12.11778141 13.25693110
Cu 12.12927130 14.44957729 5.65596749
Cu 11.63611894 7.05659206 11.01126280
Cu 12.51630042 6.32887473 1.63170580
Cu 15.11433735 10.19186795 6.10750464
Cu 14.85126748 13.74109879 7.03907788
Cu 1.23099240 14.20810884 9.74342045
Cu 5.75915726 3.65055169 2.10573100
Cu 15.83955867 1.64593856 11.48472878
Cu 17.15866123 9.94859479 1.49529025
Cu 11.54081332 2.53428825 17.58014684
Cu 13.42053568 8.48927394 7.34345086
Cu 11.23034018 10.37007132 12.24029889
Cu 2.95045793 13.15777302 2.17263496
Cu 2.64861499 11.20468053 16.05852198
Cu 17.62170049 12.90648075 17.18332443
Cu 7.32462579 1.99486618 13.86579136
Cu 12.87881338 9.16662554 14.48541172
Cu 7.85920494 13.56095924 12.62466552
Cu 11.71518100 3.82672300 9.48976668
Cu 10.46310640 15.94283300 9.65765439
Cu 17.21194106 6.60800007 3.90799158
Cu 17.28372386 8.77354584 4.89121299
Cu 2.69127999 13.73478593 4.87262310
Cu 12.30306748 4.65723208 15.03489533
Cu 15.60451446 10.31717365 9.57005654
Cu 4.83866615 3.75087858 4.23059954
Cu 10.48515009 17.28984639 5.53349349
Cu 10.80243209 5.65327672 13.17619615
Cu 6.61202273 10.76786194 17.23666434
Cu 8.27531897 0.89019763 0.29103698
Cu 9.44992609 13.10032136 3.04193760
Cu 15.78008999 12.17088809 13.66663397
Cu 1.97407999 6.74569151 9.14977713
Cu 2.27290247 4.84673546 10.03934809
Cu 16.32763939 2.43539797 3.76247168
Cu 9.03660483 16.59905208 3.63561817
Cu 8.48329831 3.73096756 15.17372947
Cu 14.39553653 14.43136601 17.71743879
Cu 7.34428078 6.54579660 12.63721977
Cu 14.49646622 5.29986953 16.15599683
Cu 7.78312220 12.91954216 17.57648698
Cu 5.15030567 14.42203770 14.07886544
Cu 10.58297308 15.32580719 7.08121832
Cu 13.12894330 2.84231329 3.96966453
Cu 9.44744021 6.27731867 11.28695648
Cu 3.99849395 9.32361584 12.43886588
Cu 7.72259011 14.83258763 3.88494248
Cu 10.64757179 5.11452150 4.63379537
Cu 12.92277643 13.37956416 4.24886962
Cu 15.47939626 17.07550234 3.91706484
Cu 14.71881316 9.49732702 11.46559278
Cu 3.51956156 7.90484107 1.75622209
Cu 5.98440586 7.37360639 1.11288796
Cu 3.14391925 7.68015965 7.18738244
Cu 17.36943758 15.23839112 0.57439054
Cu 1.42975910 9.58553095 5.36758824
Cu 6.56552279 5.67284907 10.16975073
Cu 9.35238652 17.11103876 1.38639877
Cu 7.49322422 8.36137024 14.38619936
Cu 13.27916480 3.02261613 0.68614426
Cu 6.27095354 10.31675355 8.85501863
Cu 15.04473001 7.10737592 9.76513289
Cu 12.94432767 0.19417897 16.05970500
Cu 5.77056286 4.37474727 15.48757698
Cu 3.12094681 0.84796535 0.76127932
Cu 11.03261575 3.54510286 13.19310822
Cu 6.91164666 5.62862683 5.92744780
Cu 8.34702159 7.33553178 6.30298129
Cu 14.67196035 15.45865416 14.45618925
Cu 13.96619960 1.05726444 4.88776675
Cu 6.95162867 16.11334931 9.98546005
Cu 2.71591351 11.39695751 11.58661876
Cu 6.07352363 1.12909777 5.60306500
Cu 3.03951517 3.06734674 11.54174063
Cu 3.75237753 12.97410443 15.97059681
Cu 1.32621917 5.18961003 15.47584231
Cu 0.44886963 0.95105374 10.22128346
Cu 16.74795385 1.46118451 13.64693145
Cu 8.92969584 11.08422019 3.61568905
Cu 15.54129040 4.71334440 9.02310365
Cu 4.57983076 17.44641857 0.18018219
Cu 1.88564184 0.22469022 2.80062882
Cu 13.09028852 0.67953226 0.57549997
Cu 0.56763485 12.48606000 10.99259019
Cu 1.22412011 7.37971558 5.42787575
Cu 15.70576736 14.53675916 1.71411770
Cu 3.69133871 15.06364287 18.00024876
Cu 6.52321870 13.16293206 5.15427867
Cu 8.62292009 14.81028889 8.88121666
Cu 5.07752631 12.23134768 12.79279956
Cu 14.27065262 10.88338748 13.19084207
Cu 4.40273350 6.35239197 5.39392034
Cu 13.98271834 12.00834058 9.10702115
Cu 12.45869177 15.95970193 17.56948623
Cu 14.72496589 9.45927621 1.74330091
Cu 11.51096798 14.26644609 2.89700650
Cu 14.75169756 3.91827869 14.22785227
Cu 17.95450177 11.22760151 9.57179681
Cu 12.97445275 16.81800364 14.61098897
Cu 17.06865140 7.15276178 6.12365210
Cu 12.91342286 7.13224414 14.42708404
Cu 15.47915088 5.60124517 5.20264392
Cu 0.88177080 11.24764275 0.99584736
Cu 8.21032694 10.28664801 7.83170434
Cu 13.83800205 13.49956979 2.10924108
Cu 9.09373171 17.44959764 10.67682181
Cu 0.61836279 15.99240654 7.92796344
Cu 0.87654594 5.52497981 3.28388020
Cu 3.02325303 8.27753511 4.56549646
Cu 1.17110695 12.33031396 13.16373870
Cu 18.04322687 16.70791818 4.94865468
Cu 9.60968983 1.76541151 5.16742848
Cu 17.15966475 11.12609457 14.71113749
Cu 4.44550141 6.04008147 0.40424926
Cu 16.23038776 14.49544686 16.40851971
Cu 14.89859008 12.49662322 16.24609479
Cu 5.49077178 9.31459054 14.86519915
Cu 13.78031776 5.84103236 7.24786686
Cu 11.69874348 11.32427097 4.42486485
Cu 15.38048808 17.76589449 13.12949024
Cu 12.24924371 4.91086173 17.46397835
Cu 17.25472081 13.52097113 14.48659198
Cu 12.10104461 12.68245048 15.90915362
Cu 15.32261770 10.74193107 17.52023479
Cu 6.72011507 11.67387311 1.19004392
Cu 2.13279465 3.75423597 3.93218972
Cu 8.29373025 3.81666914 2.30457044
Cu 0.36780291 9.15903722 9.84391884
Cu 16.54376008 5.80430041 1.54864063
Cu 7.37777018 8.51604092 11.74991526
Cu 12.16277691 13.52888006 0.05301733
Cu 6.52998255 0.45781750 7.85401120
Cu 15.60884259 12.81032332 0.38510330
Cu 13.39403991 17.98168823 12.15770987
Cu 8.80845006 4.17931056 5.36987435
Cu 15.15911285 10.56178026 15.23533769
Cu 4.79018629 16.72568695 8.17200672
Cu 3.18662294 4.49638200 5.90489769
Cu 13.72216316 8.83805350 9.69723476
Cu 10.71908512 17.73734041 7.93182981
Cu 13.17740565 12.26152691 12.03264190
Cu 7.74600214 11.37679287 13.28498744
Cu 1.83819852 16.19454219 12.48315502
Cu 4.93218529 4.02637530 17.94998774
