500
Final configuration Lattice="20.40000000 0 0  0 20.40000000 0  0 0 20.40000000" Properties=species:S:1:pos:R:3
Au 20.33474301 20.34542654 20.32079519
Au 20.37903681 1.94470803 1.97327073
Au 1.96585544 20.35822488 2.05969259
Au 2.06428833 2.15212263 0.03820860
Au 20.35497425 20.34785355 4.08137107
Au 0.04875383 1.97530688 6.12874830
Au 2.07728276 0.04605019 6.07473110
Au 2.02352417 1.94751487 4.06454274
Au 20.31689632 20.37203219 8.22604727
Au 20.37498255 2.09467568 10.22584278
Au 2.06278700 0.05027151 10.29951775
Au 1.99761013 2.00143962 8.18151705
Au 20.34276075 0.04118742 12.24955389
Au 0.10576441 2.11376498 14.33431929
Au 2.07149340 0.08534274 14.32730616
Au 2.00414269 2.03902742 12.24455392
Au 0.03456318 20.39112177 16.40980036
Au 0.03310622 2.10244877 18.46065670
Au 1.94840579 0.15958311 18.44432376
Au 2.08171698 2.12915267 16.42592525
Au 0.02146557 4.00979004 20.37111137
Au 20.39340478 6.09093733 2.04635878
Au 2.15673500 4.01737578 2.08808891
Au 1.97521886 6.12818692 0.06372884
Au 0.13772732 4.07893921 4.04228132
Au 20.31098970 6.15845903 6.09922940
Au 2.08412794 4.13775594 6.08166851
Au 2.03195698 6.11230780 3.96570908
Au 0.05067745 4.08226176 8.17957298
Au 20.38240361 6.16649639 10.15345572
Au 1.99994974 4.11423796 10.23339771
Au 2.00241157 6.07500810 8.13115120
Au 0.01181266 4.07502391 12.15869698
Au 0.07527383 6.00527383 14.21460335
Au 2.14634517 4.04893303 14.32888130
Au 2.01516229 6.10802329 12.26102409
Au 0.01324254 4.05568668 16.30290389
Au 0.06033985 6.10514504 18.36734067
Au 2.10775259 4.05239371 18.37691406
Au 1.90159283 6.11028986 16.29799902
Au 20.33223885 8.19288484 0.01373180
Au 20.28953610 10.32948183 2.04490545
Au 1.95749882 8.18230921 2.07499371
Au 1.93713996 10.24032845 0.06801833
Au 20.29333097 8.20355139 4.02687966
Au 0.00231145 10.21736846 6.09053332
Au 2.05943690 8.15465923 6.03046432
Au 2.10312064 10.20862766 4.06805084
Au 0.01036733 8.10189912 8.06544697
Au 0.00725143 10.12381067 10.23168855
Au 1.98994966 8.06675164 10.17916065
Au 1.99882890 10.29619887 8.12667703
Au 0.05579059 8.10184761 12.32455539
Au 0.03012315 10.21803049 14.33295639
Au 2.10264097 8.22477665 14.32138733
Au 2.06147397 10.16763079 12.21331045
Au 0.03621438 8.13337798 16.36615265
Au 20.37471966 10.26206881 18.39151615
Au 1.96180848 8.19687289 18.42382026
Au 2.05253578 10.20713378 16.34636517
Au 20.36362302 12.37882972 0.03817005
Au 20.37417643 14.32443987 2.08978238
Au 2.10398033 12.26006330 2.08406954
Au 2.02481538 14.35206575 0.08586336
Au 20.37983920 12.26479227 4.02483794
Au 0.00548066 14.20826277 6.03809103
Au 2.08574930 12.26837269 6.06823473
Au 2.00395355 14.35328693 3.94279709
Au 20.29029547 12.26159842 8.09669987
Au 20.38496777 14.34059650 10.27341615
Au 2.03033750 12.26190720 10.27919825
Au 1.88034374 14.26415484 8.14948303
Au 0.05834753 12.24692323 12.30224347
Au 20.37127801 14.32536277 14.31772920
Au 2.05871339 12.29506612 14.33255230
Au 2.14220844 14.29615407 12.24695293
Au 0.13150331 12.27846468 16.31475274
Au 0.02613738 14.34629024 18.30307179
Au 2.04166274 12.36467185 18.37836952
Au 2.08299225 14.41113553 16.31094797
Au 20.31998175 16.32494486 0.02709948
Au 20.39534360 18.35195960 2.02090207
Au 1.95624041 16.39417339 2.03899745
Au 1.95571090 18.40188926 0.01887888
Au 0.07182399 16.31674590 4.14000183
Au 20.39768855 18.36011617 6.05666717
Au 2.05213258 16.28385723 6.18203577
Au 1.99262724 18.33528104 4.19133531
Au 20.29491243 16.30717977 8.09466228
Au 20.33360097 18.38574675 10.19852254
Au 1.89134258 16.40456811 10.17856818
Au 1.97119295 18.34560091 8.11881006
Au 20.29927255 16.34930775 12.29477093
Au 20.39436403 18.34920480 14.32381246
Au 2.04094071 16.35293951 14.35229063
Au 2.02083965 18.29943861 12.24459588
Au 20.38072351 16.39631645 16.36244910
Au 20.33137565 18.29915536 18.30601087
Au 2.01754156 16.44507993 18.44103524
Au 2.02412769 18.51262886 16.32423193
Au 4.12738508 0.04833376 0.04687040
Au 4.02478394 1.95797084 2.00974419
Au 6.14192171 0.01200939 1.97742137
Au 6.16205297 2.05711856 0.06968480
Au 4.13874968 20.37900276 4.08344260
Au 4.01231044 2.01451490 6.07777921
Au 6.11569762 0.03685153 6.14778529
Au 6.13249839 2.10651002 4.01666737
Au 3.90402639 0.08247886 8.14997181
Au 4.13657351 2.03852293 10.24632850
Au 6.08810588 0.02095660 10.17660256
Au 6.00102935 2.04112368 8.19190710
Au 4.04090114 20.39107639 12.31307293
Au 4.09029269 1.94595461 14.37116593
Au 6.26487556 0.01457525 14.27674005
Au 6.05716714 1.99441430 12.20694588
Au 4.04658148 0.06612156 16.44266686
Au 4.12334343 2.17678951 18.44789217
Au 6.07399261 0.02988773 18.47033295
Au 6.16182610 2.06858966 16.41823096
Au 4.05556535 4.17720429 0.08872513
Au 4.10793703 6.15556944 2.03054415
Au 6.03568747 4.06085164 2.04382802
Au 6.07153693 6.18400881 0.02929873
Au 4.20564842 4.09232852 4.09936375
Au 4.00958516 6.09122673 6.15752043
Au 6.09373942 4.08265052 6.19301000
Au 6.16520215 6.15668977 4.08432103
Au 3.99582266 4.02775790 8.23260476
Au 4.12615324 6.12805603 10.28885259
Au 6.02248662 4.01230358 10.26764912
Au 6.17156322 6.09282398 8.13575378
Au 4.10913862 4.11267801 12.30892461
Au 4.06326148 6.15797131 14.32290640
Au 6.08039566 4.00431218 14.47120322
Au 6.07584707 6.11590877 12.37777409
Au 4.06021859 4.04765844 16.35242789
Au 3.92132067 6.14729919 18.37230160
Au 6.06851849 4.14487479 18.55692718
Au 6.03065478 5.98636598 16.40029030
Au 4.00804399 8.21177239 20.39918897
Au 4.11277780 10.17265249 2.01713939
Au 6.27052843 8.28321429 2.13349581
Au 6.14435317 10.11820367 0.03259975
Au 4.18549688 8.17248966 4.01623524
Au 4.08906693 10.13344164 6.07823479
Au 6.04423806 8.14890849 6.08775406
Au 6.20143404 10.30557224 4.05275506
Au 4.11336755 8.15279147 8.11967639
Au 4.02791960 10.17936050 10.15230025
Au 6.18533123 8.16056666 10.14856002
Au 6.08119445 10.21482551 8.19785038
Au 4.05200441 8.13286046 12.13249216
Au 4.06480290 10.14979257 14.30750374
Au 6.14027431 8.21784573 14.38286525
Au 6.09521200 10.26147772 12.22919736
Au 4.06752683 8.13582287 16.43948338
Au 4.09989362 10.22978939 18.38858415
Au 6.12052042 8.18593757 18.32784122
Au 6.20588230 10.23254087 16.34717622
Au 4.12942915 12.24152953 0.03994377
Au 4.11237229 14.24677432 2.00400918
Au 6.21616028 12.23672301 2.00469920
Au 6.15746107 14.36947754 0.00140887
Au 4.16343128 12.22154514 4.08957636
Au 4.04058207 14.32434373 6.03284409
Au 6.02710412 12.17291729 6.18217252
Au 6.01486908 14.25976327 4.12027299
Au 4.03527844 12.27865788 8.14134567
Au 3.99143722 14.26610917 10.18957348
Au 6.07262752 12.38938296 10.16947738
Au 6.05749571 14.32492584 8.05906464
Au 4.11443793 12.24390195 12.21556614
Au 4.07644686 14.32314622 14.29780854
Au 6.12835875 12.22787841 14.32698124
Au 6.17182653 14.29718620 12.23996911
Au 4.09351745 12.21592539 16.36134067
Au 4.12220358 14.29246410 18.37291062
Au 6.11852751 12.19451563 18.33321674
Au 6.09830989 14.24798600 16.26866577
Au 4.07553821 16.28079466 20.38555012
Au 3.94811001 18.38260134 2.15072151
Au 6.08079081 16.27130082 2.06906497
Au 6.09290059 18.21201316 0.02843627
Au 4.08253974 16.38375044 4.04060031
Au 4.06576074 18.35866825 6.16252748
Au 6.18630919 16.41326741 6.13201178
Au 6.16226482 18.41589045 4.00923189
Au 4.02656298 16.28098041 8.24716395
Au 3.97747753 18.36168504 10.27992614
Au 6.04631141 16.26489929 10.13927022
Au 6.18128808 18.35810285 8.22458253
Au 4.13345802 16.36398215 12.27817047
Au 4.03247693 18.40836389 14.40107776
Au 6.08003192 16.37393137 14.34407562
Au 6.11376055 18.38402231 12.22488447
Au 4.06495280 16.37754859 16.35181660
Au 4.03756145 18.40463562 18.44468297
Au 6.07996923 16.33375573 18.32677111
Au 6.11810547 18.50272259 16.36054175
Au 8.15698353 0.04971662 0.07724267
Au 8.17231114 2.14351231 2.09939530
Au 10.22700097 0.00314929 2.09353564
Au 10.14642950 2.09675497 20.36178915
Au 8.11421380 0.03010973 4.00760465
Au 8.12675507 2.06535572 6.16829934
Au 10.09954271 0.11076358 6.10518682
Au 10.18192552 2.01565615 4.05523459
Au 8.11817515 0.00661103 8.15912676
Au 8.04177250 2.01281538 10.23790152
Au 10.18464445 20.39685071 10.17541115
Au 10.11484495 2.05364250 8.21895200
Au 8.23665383 0.01592862 12.29354320
Au 8.10851239 2.05297851 14.33042238
Au 10.19020535 0.09222321 14.21028350
Au 10.07634326 2.12663953 12.28623893
Au 8.18532405 20.34325330 16.36780743
Au 8.13617870 2.17264590 18.40785563
Au 10.24095507 0.04169340 18.39673001
Au 10.13045001 2.05774290 16.31164657
Au 8.20729111 4.17280403 20.39065695
Au 8.12133466 6.04350718 2.02156119
Au 10.23679631 4.10801190 1.96219322
Au 10.19691581 6.08007553 20.37445170
Au 8.05470384 4.09819686 4.18574283
Au 8.13188708 6.21631229 6.22293005
Au 10.18792156 4.04090511 6.16833769
Au 10.17929136 6.11491999 4.03599937
Au 8.14215471 4.08204141 8.12017974
Au 8.09426859 6.01959959 10.22054446
Au 10.16718864 4.01743709 10.25352640
Au 10.21246324 6.01389960 8.21639625
Au 8.14670928 4.13011871 12.31793810
Au 8.08279632 6.12625043 14.33695590
Au 10.24832553 4.07431357 14.30890293
Au 10.20505147 6.03619935 12.24217211
Au 8.14668509 4.15333156 16.29694030
Au 8.19063322 6.13715311 18.45649277
Au 10.30699087 4.07914098 18.34385125
Au 10.19486211 6.03786966 16.42326146
Au 8.26169206 8.13473526 0.01316138
Au 8.25588699 10.21832346 2.14122393
Au 10.21622992 8.00388917 2.09740183
Au 10.16123256 10.14289132 20.38242348
Au 8.22364273 8.11790954 4.11807620
Au 8.07900757 10.16080619 6.03800550
Au 10.30451164 8.21488427 6.14296921
Au 10.23599701 10.23943397 4.10550112
Au 8.20597628 8.22695246 8.11208906
Au 8.10521600 10.29082758 10.26124686
Au 10.01275432 8.11408351 10.16614750
Au 10.17505514 10.21272965 8.15005763
Au 8.08033034 8.18307506 12.23335486
Au 8.21108903 10.11479119 14.23055876
Au 10.17060466 8.07772000 14.17464500
Au 10.23799548 10.14559616 12.20541963
Au 8.25653229 8.03812352 16.35108883
Au 8.14325196 10.19240422 18.37083901
Au 10.22805790 8.15012648 18.35959571
Au 10.23260940 10.04466734 16.24118524
Au 8.18909536 12.25162942 20.33737624
Au 8.14507166 14.32059245 1.91169650
Au 10.17734966 12.30282180 2.00912761
Au 10.18113265 14.32093466 20.30087548
Au 8.14486301 12.25759487 4.12905748
Au 8.13443613 14.25235164 6.06591630
Au 10.19679812 12.20901289 6.10546268
Au 10.12015320 14.18945456 4.04233130
Au 8.11424976 12.21350090 8.16362601
Au 8.05882619 14.17961353 10.15646184
Au 10.14236696 12.26705606 10.20632411
Au 10.13404670 14.19900840 8.10072163
Au 8.14383041 12.20683271 12.32127204
Au 8.09060109 14.29678033 14.34145022
Au 10.20564266 12.12990016 14.18913413
Au 10.13605168 14.29177333 12.30923120
Au 8.27585957 12.21086591 16.33341430
Au 8.19494401 14.36890340 18.32648144
Au 10.29287678 12.27354080 18.37431404
Au 10.22473590 14.35722756 16.32396159
Au 8.26260455 16.36782491 20.35278684
Au 8.13654475 18.33635217 2.04650849
Au 10.17487477 16.28065527 2.01457944
Au 10.26698095 18.36900738 0.07302655
Au 8.21646944 16.27072652 4.17117441
Au 8.10497923 18.36971608 6.12654058
Au 10.34423236 16.23733405 6.02452358
Au 10.18189396 18.28120230 4.04321259
Au 8.10595461 16.24986627 8.02688630
Au 8.23407927 18.36075487 10.14897899
Au 10.09468347 16.17010084 10.11501047
Au 10.16809424 18.37410665 8.04124044
Au 8.08866716 16.33654330 12.12984225
Au 8.11910115 18.31929765 14.27622332
Au 10.24070658 16.40037322 14.16647817
Au 10.23255920 18.43153003 12.17287377
Au 8.19801091 16.35224512 16.32224980
Au 8.14570302 18.38275305 18.45718775
Au 10.19884101 16.41980480 18.29136236
Au 10.11843883 18.30890719 16.24153011
Au 12.23159331 0.09507067 0.00081103
Au 12.20135684 2.00409689 2.04187784
Au 14.26086568 20.32274814 1.99175767
Au 14.26724933 2.08258495 20.34278339
Au 12.30714126 20.38076485 4.13704728
Au 12.30637114 1.96088692 6.13790551
Au 14.36172357 0.05540022 6.23017638
Au 14.26227904 1.99001632 4.13042371
Au 12.22738112 20.31973003 8.15160262
Au 12.19746556 2.02519747 10.05114251
Au 14.36071063 20.39406642 10.25804475
Au 14.30094407 2.01129483 8.22363264
Au 12.27487382 0.07232195 12.12249779
Au 12.37962488 2.09309630 14.27864579
Au 14.32058860 0.04141017 14.38917631
Au 14.41059409 2.07263638 12.17098277
Au 12.12382872 0.09076316 16.20802209
Au 12.25404236 2.10369431 18.35152417
Au 14.16218148 0.02825525 18.37541286
Au 14.37548072 2.08379194 16.30947516
Au 12.26276672 4.17444688 20.35959726
Au 12.15447577 6.11049890 2.01306771
Au 14.20330543 3.98980503 2.02083752
Au 14.26133125 6.11105501 20.38216673
Au 12.24317024 4.06530209 4.13240198
Au 12.24395407 6.08658958 6.08802823
Au 14.29742244 3.98801819 6.15473082
Au 14.19397502 6.02627596 4.04384949
Au 12.26211393 4.03399197 8.19163353
Au 12.12318544 6.09869232 10.21470465
Au 14.25556806 4.05201111 10.13294142
Au 14.18293976 6.11280992 8.18149769
Au 12.22400283 4.02083072 12.18295750
Au 12.24279388 6.02131759 14.15028934
Au 14.30095713 4.05624450 14.16314406
Au 14.18916359 6.07316096 12.08042325
Au 12.30095577 4.08391714 16.23860708
Au 12.29413022 6.10232426 18.30805868
Au 14.38769436 4.07199784 18.35356784
Au 14.38909528 6.17278173 16.27512470
Au 12.16011053 8.18057352 0.05150857
Au 12.13675988 10.11750588 1.96476364
Au 14.28752199 8.07255026 1.96496095
Au 14.22471969 10.20824384 20.36088237
Au 12.30301473 8.23672598 4.05130466
Au 12.34515650 10.21996070 6.11590720
Au 14.29016078 7.99033162 6.08431934
Au 14.29228561 10.13233500 4.00083157
Au 12.30518966 8.12989246 8.10923446
Au 12.21464196 10.17158155 10.12503233
Au 14.28075418 8.17875179 10.24208698
Au 14.41614170 10.26074800 8.19130388
Au 12.19931066 8.18015593 12.11462585
Au 12.21680377 10.10888621 14.23334236
Au 14.28479291 8.09100383 14.21551625
Au 14.23735189 10.16662521 12.27375414
Au 12.27670259 8.03103879 16.17012875
Au 12.24684299 10.10104705 18.36394129
Au 14.21565668 8.03234162 18.26952248
Au 14.24719897 10.06414787 16.32926955
Au 12.23970388 12.23298665 20.35290570
Au 12.29055515 14.33855257 2.09541778
Au 14.17089980 12.13617479 2.04217191
Au 14.29592983 14.20786218 0.02116847
Au 12.25068773 12.17870031 4.10459713
Au 12.25830459 14.31835853 6.03024587
Au 14.28498194 12.26455508 6.04131584
Au 14.27199726 14.35696977 4.10230997
Au 12.27439300 12.28644991 8.13632894
Au 12.19634463 14.28389875 10.23937546
Au 14.28583490 12.25809524 10.22485253
Au 14.38638873 14.22668751 8.18145175
Au 12.20680972 12.28640882 12.14041892
Au 12.29106947 14.25879271 14.31121160
Au 14.30805500 12.19318465 14.26721096
Au 14.31233115 14.32051519 12.29915690
Au 12.29180536 12.17650023 16.27738006
Au 12.28633354 14.30914650 18.35553182
Au 14.30080675 12.14595001 18.37560305
Au 14.26959112 14.28576120 16.22352834
Au 12.26104953 16.34463244 0.04756284
Au 12.25854853 18.32541281 2.11711609
Au 14.32313220 16.35509891 2.09061212
Au 14.29298927 18.36854754 20.36766199
Au 12.25915513 16.31510466 4.04948185
Au 12.30014773 18.38253850 6.13143589
Au 14.28411638 16.33844604 6.11973549
Au 14.35634440 18.41400243 4.02628653
Au 12.28704479 16.16878796 8.22431318
Au 12.12377753 18.36480426 10.08916477
Au 14.32320906 16.29180429 10.20962145
Au 14.22129376 18.38896761 8.28261532
Au 12.22082857 16.31024271 12.09950746
Au 12.23085238 18.44149188 14.22604302
Au 14.30955330 16.34184984 14.28134259
Au 14.25782719 18.30828222 12.19457925
Au 12.25094081 16.36952491 16.28377138
Au 12.24003946 18.47750939 18.34330747
Au 14.31316410 16.39525377 18.34970528
Au 14.29096803 18.38891875 16.31771656
Au 16.33780855 20.30289089 20.39053668
Au 16.21315427 2.00893182 2.05476742
Au 18.31416154 20.34336519 2.05432989
Au 18.27469276 1.99339490 20.37376599
Au 16.35115886 0.04161539 4.06201762
Au 16.31861319 2.01677304 6.07317706
Au 18.40801301 0.04187183 6.11390569
Au 18.36572351 2.03384177 4.07643621
Au 16.38889278 20.37814528 8.26461430
Au 16.35938074 2.07292902 10.11064634
Au 18.35044666 0.16579759 10.27024952
Au 18.39355547 2.09303483 8.10545320
Au 16.34907179 20.31749193 12.34955180
Au 16.35096895 2.03523473 14.21037966
Au 18.46850771 0.16751163 14.33216770
Au 18.32860059 2.11405237 12.21766054
Au 16.41566204 0.00428241 16.28549667
Au 16.27369000 1.98270476 18.47811320
Au 18.42936944 20.39510957 18.35767530
Au 18.42389049 2.02431924 16.38362052
Au 16.33849270 4.02064071 20.37836017
Au 16.32054761 5.93824679 2.05270425
Au 18.38548232 4.01215504 2.07450647
Au 18.37656108 6.10471613 20.33913296
Au 16.28190794 4.03546939 4.13902692
Au 16.33437723 6.07807664 6.09962412
Au 18.47138298 4.04071238 6.07579640
Au 18.41211177 6.03412367 4.05503804
Au 16.34870380 4.09867293 8.18444703
Au 16.36675367 6.08569791 10.14347615
Au 18.43214138 4.08721579 10.10515608
Au 18.36109077 6.02255356 8.05892914
Au 16.26970017 4.13972759 12.08040861
Au 16.38922165 6.10690617 14.22847524
Au 18.40848251 4.14384209 14.32948849
Au 18.46208103 6.13136211 12.27632711
Au 16.34140974 4.06982088 16.27263153
Au 16.25969751 6.10097973 18.33538065
Au 18.42226184 3.99382433 18.33587073
Au 18.44937135 6.16560965 16.28623285
Au 16.31310540 8.17258046 20.36249580
Au 16.43166872 10.12184770 2.17141918
Au 18.39413060 8.14785657 1.98290347
Au 18.31030611 10.25810203 20.39172618
Au 16.33712210 7.99777652 4.00526442
Au 16.36391668 10.19119851 6.06806626
Au 18.30219397 8.07141112 6.06942287
Au 18.43470483 10.21569761 4.17419152
Au 16.36688016 8.12128833 8.18697680
Au 16.34829014 10.23558531 10.23592707
Au 18.38979139 8.17207086 10.27120697
Au 18.44878483 10.15245564 8.18774486
Au 16.35125010 8.13856666 12.21824977
Au 16.29066319 10.21052235 14.32515203
Au 18.32485743 8.17421604 14.25216482
Au 18.39604358 10.16666476 12.31416734
Au 16.33176530 8.15501517 16.37934997
Au 16.30429325 10.19412027 18.35601447
Au 18.41425647 8.14623475 18.38512178
Au 18.35176890 10.25122342 16.25924217
Au 16.27633751 12.12300523 20.36512437
Au 16.28589936 14.24638921 2.01230050
Au 18.33379741 12.26898414 2.08475568
Au 18.37922377 14.23834987 0.01324846
Au 16.30613894 12.22504940 4.03101097
Au 16.34169278 14.29956597 6.10505235
Au 18.34671202 12.31690070 5.96592296
Au 18.34358912 14.34117698 3.96610094
Au 16.38068959 12.17874360 8.18101773
Au 16.34212918 14.18384432 10.24504944
Au 18.33723439 12.19431734 10.33781599
Au 18.29124879 14.23674078 8.22436297
Au 16.24393284 12.19103535 12.34152210
Au 16.31706319 14.32027744 14.28910919
Au 18.47978524 12.21827693 14.33628892
Au 18.34015404 14.33034514 12.38356312
Au 16.27647043 12.20357149 16.20436148
Au 16.37792169 14.23502913 18.37627105
Au 18.30949743 12.23283535 18.36662257
Au 18.29398687 14.32902104 16.27921858
Au 16.33368448 16.23996271 20.34474554
Au 16.37106459 18.33586790 1.99563204
Au 18.36866876 16.30521015 2.02767707
Au 18.36214466 18.24621675 20.39103274
Au 16.34875171 16.33842742 3.96822036
Au 16.29923035 18.41614313 6.14065395
Au 18.25994444 16.28889376 5.96116540
Au 18.30157231 18.32666705 4.09356642
Au 16.31350821 16.36073593 8.22354014
Au 16.40763776 18.38463629 10.21206977
Au 18.37853261 16.33636858 10.19998885
Au 18.33622542 18.30548601 8.01171804
Au 16.38731496 16.35725959 12.26535761
Au 16.32223707 18.37924070 14.31052693
Au 18.31008225 16.32698751 14.32502776
Au 18.38620906 18.46389156 12.25063664
Au 16.24896432 16.31477112 16.37935342
Au 16.26849895 18.42698973 18.32498245
Au 18.29934542 16.27182291 18.42349294
Au 18.39416593 18.40605957 16.35308514
