108
Step=0 Lattice="12.27 0 0  0 12.27 0  0 0 12.27" Properties=species:S:1:pos:R:3
Ag 1.07867067 1.11211398 1.17844529
Ag 0.97346826 3.12031514 3.02385058
Ag 3.08312401 0.91081732 3.08755223
Ag 3.04621224 3.20075186 1.13368485
Ag 1.17811221 0.89284377 5.17103864
Ag 1.13755345 3.05466299 7.18761922
Ag 3.10587513 1.01299294 7.11497599
Ag 3.05475099 3.12256088 4.98058016
Ag 1.03217747 1.02994815 9.14619923
Ag 1.08304810 3.07067327 11.30943727
Ag 3.08386730 0.90121127 11.27163872
Ag 3.10053558 3.09132812 9.19870127
Ag 0.97314520 5.21361835 1.04136975
Ag 1.04757248 7.20264334 3.12869389
Ag 2.98337537 5.16383336 3.11597115
Ag 2.99475156 7.15983247 1.00792400
Ag 0.97530202 5.10169364 5.13370284
Ag 1.02444923 7.17732026 7.11987232
Ag 3.09545858 5.18769484 7.13334479
Ag 3.11074958 7.23982442 5.07048360
Ag 1.00828841 5.15601459 9.15528650
Ag 0.89951792 7.26632797 11.24989813
Ag 3.06441688 5.14130515 11.24198410
Ag 3.06304823 7.13136822 9.31382136
Ag 0.87115836 9.20307926 0.97679732
Ag 1.15789970 11.13167234 3.09526340
Ag 3.13676256 9.22085069 3.10400469
Ag 3.04454531 11.18137826 0.93771342
Ag 1.02871840 9.20651579 5.12956565
Ag 0.95079655 11.28884140 7.10715981
Ag 3.03134028 9.12477469 7.20510829
Ag 3.09512242 11.20010320 5.21376549
Ag 1.05745174 9.24482883 9.20805364
Ag 0.97307924 11.24854629 11.20983001
Ag 3.07650928 9.16944863 11.28238564
Ag 2.93231370 11.23238210 9.13007674
Ag 5.09709773 1.01984004 1.00589104
Ag 5.11612848 3.15694957 3.13077303
Ag 7.17910231 1.01937837 3.08808905
Ag 7.14233743 3.01079936 0.96952327
Ag 5.07589680 1.00922085 5.15791109
Ag 4.96766599 3.07503459 7.08405766
Ag 7.10589664 1.04897134 7.10222717
Ag 7.08765568 3.07511012 5.08306990
Ag 5.13342050 0.99073776 9.16013136
Ag 5.06274708 3.02247963 11.24886003
Ag 7.19252506 1.00712383 11.24536992
Ag 7.12605348 3.05483875 9.14758033
Ag 5.14912451 5.12698494 1.03642465
Ag 5.14711771 7.16059330 3.00157991
Ag 7.18921222 5.14198096 3.00180452
Ag 7.21981624 7.15998137 0.98091865
Ag 5.14303693 5.17487197 5.08305892
Ag 5.19568682 7.15380655 7.17538373
Ag 7.11500499 5.02946072 7.09612748
Ag 7.08508726 7.20135534 5.17312856
Ag 5.11781532 5.11700916 9.17119727
Ag 5.15264953 7.13690865 11.35918382
Ag 7.22224122 5.03028079 11.24578841
Ag 7.24236815 7.18626257 9.14050545
Ag 5.21424875 9.24024696 0.97233121
Ag 5.12634112 11.15160940 3.01343974
Ag 7.10600664 9.14252316 3.11296228
Ag 7.12186973 11.19589965 0.93787954
Ag 5.13142169 9.25402745 5.15271223
Ag 5.12345235 11.13508060 7.25958521
Ag 7.18512591 9.24404751 7.27605874
Ag 7.11080336 11.30295743 5.17375069
Ag 5.10408307 9.15663073 9.27853865
Ag 4.99763780 11.24574490 11.20964399
Ag 7.20917839 9.20367519 11.15377423
Ag 7.18929252 11.30190645 9.17553488
Ag 9.22529770 0.98349656 1.03240507
Ag 9.16350417 3.06246373 3.07814557
Ag 11.24047890 0.90674201 3.13656261
Ag 11.23913510 3.03105915 0.99115040
Ag 9.19525441 1.03426465 5.11967682
Ag 9.24263453 3.12110873 7.20253591
Ag 11.32069353 1.03793661 7.13790988
Ag 11.35309181 3.00452956 5.12699893
Ag 9.12776981 0.99861986 9.12907035
Ag 9.24200687 3.01061487 11.16955334
Ag 11.27265698 1.00461256 11.20159276
Ag 11.30856794 3.02209825 9.20776567
Ag 9.20469462 5.00640516 0.98196141
Ag 9.19334593 7.18839202 3.14226336
Ag 11.16837175 5.04467817 3.16538407
Ag 11.07765127 7.02238043 1.04955846
Ag 9.18131051 5.15758840 5.15685736
Ag 9.17815490 7.18561040 7.10824820
Ag 11.22120595 5.00985823 7.17958094
Ag 11.25606899 7.19613320 5.13592323
Ag 9.25878437 5.14987537 9.21665420
Ag 9.26198221 7.22584174 11.12851678
Ag 11.25815093 5.12487079 11.22702805
Ag 11.26707417 7.25220048 9.10177144
Ag 9.29727457 9.18321778 1.05942080
Ag 9.12558975 11.18724990 3.12451212
Ag 11.23847427 9.18928484 3.05555254
Ag 11.29425042 11.32698958 1.04535215
Ag 9.17258712 9.25844564 5.11672739
Ag 9.17368338 11.25683690 7.14585846
Ag 11.24576735 9.25913280 7.12513062
Ag 11.24287908 11.27351283 5.16612686
Ag 9.26625979 9.23626869 9.21480490
Ag 9.21175134 11.22797801 11.25353132
Ag 11.21666704 9.31016934 11.28633845
Ag 11.19861071 11.29108497 9.13893299
108
Step=100 Lattice="12.27 0 0  0 12.27 0  0 0 12.27" Properties=species:S:1:pos:R:3
Ag 1.07288612 1.10962896 1.18070771
Ag 0.97354456 3.11086610 3.01834232
Ag 3.07452290 0.91487948 3.10536736
Ag 3.04324912 3.18859033 1.12195527
Ag 1.17191549 0.89700211 5.17330062
Ag 1.13549879 3.04700449 7.20175010
Ag 3.10597629 1.01749585 7.12382994
Ag 3.04300923 3.11149194 4.98836715
Ag 1.02045305 1.03904548 9.15082367
Ag 1.07735480 3.06816445 11.30803765
Ag 3.08619807 0.90702680 11.25337746
Ag 3.10417620 3.08128564 9.19227250
Ag 0.97956886 5.21379990 1.05123437
Ag 1.03887457 7.18997098 3.12247121
Ag 2.99260504 5.16710663 3.11283750
Ag 3.00510712 7.16065627 1.01584249
Ag 0.98409247 5.09098863 5.13549712
Ag 1.02352178 7.18285710 7.13005405
Ag 3.10074846 5.18785175 7.13840298
Ag 3.11196925 7.23455858 5.05414010
Ag 1.01071335 5.15894797 9.16626606
Ag 0.90547718 7.26601303 11.25232621
Ag 3.08304945 5.14269776 11.24304073
Ag 3.06900636 7.13269206 9.30386840
Ag 0.87436182 9.20064494 0.97642182
Ag 1.16425317 11.12263365 3.09657595
Ag 3.13816719 9.22676626 3.09661873
Ag 3.03997107 11.19729751 0.93009113
Ag 1.02369609 9.20962759 5.12559226
Ag 0.93158535 11.29011356 7.10284751
Ag 3.03929532 9.14442200 7.20221572
Ag 3.09942449 11.20446620 5.21225473
Ag 1.05353334 9.24766542 9.20564602
Ag 0.96614901 11.24691475 11.20731774
Ag 3.07559716 9.16677074 11.27314728
Ag 2.93028008 11.25133577 9.11315141
Ag 5.09902775 1.01669013 0.99845983
Ag 5.10727449 3.15011374 3.14777157
Ag 7.17570819 1.01191514 3.09155562
Ag 7.14225118 3.01723846 0.96893471
Ag 5.08887266 1.01685052 5.14449853
Ag 4.97918875 3.07736460 7.08031135
Ag 7.12136783 1.04054889 7.11407881
Ag 7.09863810 3.06824272 5.08192325
Ag 5.13193026 1.00687319 9.15108219
Ag 5.08472487 3.02345582 11.24496520
Ag 7.18811159 1.00639568 11.23783006
Ag 7.12696384 3.06871580 9.15395328
Ag 5.15116142 5.12144941 1.05000780
Ag 5.13796795 7.15716541 3.00438796
Ag 7.18301536 5.13673966 3.02013897
Ag 7.20819554 7.16313282 0.98224365
Ag 5.14505692 5.16521904 5.06469718
Ag 5.18412936 7.16052589 7.16428534
Ag 7.12420686 5.03462304 7.10359837
Ag 7.07763131 7.19207916 5.16663356
Ag 5.12261233 5.11903668 9.16573500
Ag 5.15000991 7.14408603 11.36497593
Ag 7.21039245 5.02594791 11.25033142
Ag 7.23308788 7.19593270 9.15017116
Ag 5.20791716 9.23038541 0.97940944
Ag 5.12351947 11.15572420 3.01491531
Ag 7.09350581 9.14628808 3.11111446
Ag 7.11561944 11.19191842 0.94626344
Ag 5.12593913 9.24852022 5.14705736
Ag 5.12374922 11.13799620 7.25721377
Ag 7.18068933 9.23744393 7.28061410
Ag 7.10805247 11.30802904 5.16518542
Ag 5.10884231 9.15552985 9.27488266
Ag 5.00453059 11.25280131 11.20285044
Ag 7.20043379 9.19814124 11.15276919
Ag 7.18914997 11.30199119 9.18328248
Ag 9.22299938 0.97331102 1.03374957
Ag 9.16635301 3.06139124 3.06700467
Ag 11.25150867 0.90936789 3.13110949
Ag 11.24100636 3.02666213 0.97776544
Ag 9.20881882 1.02945896 5.11534635
Ag 9.25191968 3.11845649 7.20580366
Ag 11.30765993 1.03911690 7.13549873
Ag 11.34913443 3.00004033 5.14716098
Ag 9.12820164 0.99085223 9.14155590
Ag 9.24397979 3.01519386 11.16597250
Ag 11.27770415 0.99775716 11.20462950
Ag 11.28768263 3.03206801 9.21883684
Ag 9.20430140 5.00583913 0.98406911
Ag 9.20421736 7.18999569 3.14629701
Ag 11.17109674 5.04160006 3.16341195
Ag 11.07544973 7.02931511 1.04298489
Ag 9.19300873 5.16405114 5.16509946
Ag 9.18453026 7.19491355 7.11961112
Ag 11.21767967 5.01486239 7.18574894
Ag 11.27384357 7.18293474 5.13817182
Ag 9.25643030 5.16340768 9.21468206
Ag 9.25318608 7.22294898 11.13215864
Ag 11.26726732 5.13246020 11.21913925
Ag 11.26434172 7.25472768 9.10820889
Ag 9.29184569 9.17885783 1.06003805
Ag 9.12987929 11.18243079 3.12200761
Ag 11.24003359 9.18020764 3.05777215
Ag 11.28770826 11.31236752 1.03882056
Ag 9.17052771 9.25677239 5.11038626
Ag 9.17768300 11.25920501 7.14149419
Ag 11.24540753 9.26349667 7.12148709
Ag 11.24700618 11.27086188 5.16669608
Ag 9.26040141 9.24018338 9.21535161
Ag 9.20714399 11.22244461 11.24817699
Ag 11.21809468 9.30283468 11.27742548
Ag 11.19863924 11.30521284 9.15220512
108
Step=200 Lattice="12.27 0 0  0 12.27 0  0 0 12.27" Properties=species:S:1:pos:R:3
Ag 1.06678466 1.10479814 1.18032672
Ag 0.97356332 3.10147057 3.01462325
Ag 3.06732444 0.92005979 3.12271301
Ag 3.04133360 3.17511680 1.10921557
Ag 1.16328392 0.90411350 5.17311589
Ag 1.13263099 3.04010395 7.21460756
Ag 3.10612173 1.02160015 7.13394948
Ag 3.03067631 3.09963943 4.99788215
Ag 1.00932484 1.04802899 9.15655849
Ag 1.07164281 3.06559642 11.30589688
Ag 3.08678439 0.91580006 11.23441447
Ag 3.10735961 3.07106068 9.18672280
Ag 0.98551733 5.21302345 1.06069713
Ag 1.02906534 7.17745863 3.11541046
Ag 3.00292698 5.17093741 3.10904721
Ag 3.01615219 7.16220026 1.02417008
Ag 0.99337699 5.08099179 5.13768492
Ag 1.02270787 7.18789427 7.14047652
Ag 3.10546063 5.18801944 7.14303749
Ag 3.11317436 7.22831470 5.03918182
Ag 1.01336197 5.16145274 9.17790314
Ag 0.91211701 7.26410583 11.25440407
Ag 3.10122087 5.14355671 11.24475848
Ag 3.07494569 7.13459157 9.29261611
Ag 0.87962021 9.19776162 0.97747756
Ag 1.16812978 11.11509050 3.09740421
Ag 3.13932484 9.23141915 3.08781146
Ag 3.03507374 11.21301016 0.92444895
Ag 1.01880431 9.21278643 5.12183194
Ag 0.91433662 11.28937758 7.10067142
Ag 3.04796995 9.16418034 7.19907261
Ag 3.10468186 11.20797267 5.21026735
Ag 1.04805411 9.24969813 9.20292566
Ag 0.96008936 11.24575215 11.20527565
Ag 3.07399165 9.16434909 11.26363647
Ag 2.93047811 11.27046162 9.09707846
Ag 5.10074781 1.01347882 0.99212858
Ag 5.09855308 3.14171422 3.16244035
Ag 7.17126726 1.00421057 3.09423454
Ag 7.14234885 3.02363124 0.96944401
Ag 5.10169598 1.02397895 5.12996273
Ag 4.99244778 3.08018721 7.07693853
Ag 7.13701244 1.03278421 7.12633323
Ag 7.11100494 3.06132643 5.08142758
Ag 5.12977998 1.02320587 9.14257566
Ag 5.10657064 3.02493546 11.24102199
Ag 7.18297056 1.00560591 11.23016527
Ag 7.12792352 3.08247356 9.16060734
Ag 5.15263482 5.11536152 1.06321148
Ag 5.12813778 7.15384086 3.00743478
Ag 7.17732840 5.13149450 3.03918194
Ag 7.19785705 7.16628013 0.98379990
Ag 5.14602350 5.15565715 5.04687123
Ag 5.17102243 7.16771625 7.15388607
Ag 7.13384900 5.04075930 7.11203644
Ag 7.07194605 7.18276193 5.15929967
Ag 5.12784802 5.12130997 9.16119944
Ag 5.14742826 7.15094143 11.36876040
Ag 7.19784603 5.02295701 11.25409140
Ag 7.22267352 7.20381389 9.16087825
Ag 5.19972704 9.21928938 0.98632448
Ag 5.12086278 11.16207718 3.01711608
Ag 7.08249201 9.15079021 3.10863744
Ag 7.11082581 11.18901738 0.95536329
Ag 5.12063413 9.24232807 5.14183132
Ag 5.12341812 11.14232618 7.25422263
Ag 7.17626837 9.23073161 7.28316745
Ag 7.10544141 11.31183907 5.15607159
Ag 5.11314541 9.15446030 9.27077823
Ag 5.01400446 11.25903008 11.19529998
Ag 7.19142984 9.19294283 11.15296389
Ag 7.18813730 11.30105230 9.19197000
Ag 9.22027498 0.96346369 1.03514969
Ag 9.16975640 3.05976160 3.05623649
Ag 11.26298091 0.91337901 3.12547874
Ag 11.24278673 3.02250425 0.96496087
Ag 9.22221198 1.02508674 5.11152735
Ag 9.25987834 3.11400899 7.20818643
Ag 11.29313452 1.04094496 7.13341182
Ag 11.34427361 2.99540324 5.16693213
Ag 9.13024577 0.98423464 9.15435180
Ag 9.24556240 3.01979727 11.16289519
Ag 11.28248157 0.99120152 11.20827326
Ag 11.26693646 3.04232881 9.22984300
Ag 9.20341394 5.00579751 0.98629401
Ag 9.21431798 7.19095106 3.15008227
Ag 11.17445103 5.03958152 3.16032689
Ag 11.07540538 7.03768595 1.03667623
Ag 9.20434606 5.16945005 5.17280050
Ag 9.19140782 7.20406283 7.13122365
Ag 11.21572980 5.02196101 7.19137583
Ag 11.29101372 7.16942536 5.14050957
Ag 9.25330869 5.17627988 9.21218951
Ag 9.24409941 7.21906878 11.13765088
Ag 11.27642995 5.13955303 11.21100138
Ag 11.26175167 7.25628778 9.11522994
Ag 9.28435988 9.17531735 1.06012345
Ag 9.13461498 11.17848053 3.11836370
Ag 11.24197583 9.17185930 3.06094629
Ag 11.28092537 11.29746503 1.03276360
Ag 9.16834164 9.25421639 5.10485130
Ag 9.18197004 11.26184585 7.13691629
Ag 11.24479458 9.26715539 7.11827138
Ag 11.25063756 11.26757811 5.16543863
Ag 9.25431206 9.24463302 9.21466705
Ag 9.20241842 11.21794151 11.24303886
Ag 11.21935004 9.29435959 11.26721583
Ag 11.19938369 11.31882275 9.16580362
108
Step=300 Lattice="12.27 0 0  0 12.27 0  0 0 12.27" Properties=species:S:1:pos:R:3
Ag 1.06052371 1.09751918 1.17721618
Ag 0.97350074 3.09235164 3.01281980
Ag 3.06153348 0.92626638 3.13918124
Ag 3.04055466 3.16049681 1.09566967
Ag 1.15234835 0.91388207 5.17077820
Ag 1.12880851 3.03419770 7.22609241
Ag 3.10632984 1.02531020 7.14473851
Ag 3.01792690 3.08726958 5.00907725
Ag 0.99875637 1.05677516 9.16331165
Ag 1.06605507 3.06309347 11.30296618
Ag 3.08573079 0.92735770 11.21496567
Ag 3.11017141 3.06097301 9.18224577
Ag 0.99094645 5.21125533 1.06950118
Ag 1.01835139 7.16529380 3.10764060
Ag 3.01410167 5.17482884 3.10460919
Ag 3.02768040 7.16444207 1.03274079
Ag 1.00304082 5.07173363 5.14028199
Ag 1.02221844 7.19244640 7.15099253
Ag 3.10951154 5.18810164 7.14712770
Ag 3.11412988 7.22129806 5.02590300
Ag 1.01630913 5.16345581 9.19000541
Ag 0.91952145 7.26063005 11.25612202
Ag 3.11876628 5.14382401 11.24706714
Ag 3.08080478 7.13704169 9.28022055
Ag 0.88685198 9.19446229 0.97986959
Ag 1.16940179 11.10928628 3.09768213
Ag 3.14020705 9.23468370 3.07769532
Ag 3.03000039 11.22835489 0.92063410
Ag 1.01427554 9.21576342 5.11836134
Ag 0.89941831 11.28688492 7.10072567
Ag 3.05704320 9.18369372 7.19564297
Ag 3.11068575 11.21081467 5.20789006
Ag 1.04126783 9.25106877 9.19986501
Ag 0.95516096 11.24501949 11.20370081
Ag 3.07177562 9.16241535 11.25400775
Ag 2.93266663 11.28942414 9.08215812
Ag 5.10218215 1.01029729 0.98695151
Ag 5.09000619 3.13166266 3.17442144
Ag 7.16597989 0.99644822 3.09595873
Ag 7.14266663 3.02972814 0.97115393
Ag 5.11413289 1.03052950 5.11486056
Ag 5.00731945 3.08345477 7.07384831
Ag 7.15265013 1.02579203 7.13873453
Ag 7.12479879 3.05447275 5.08171805
Ag 5.12722068 1.03949699 9.13466648
Ag 5.12788744 3.02689333 11.23704025
Ag 7.17723989 1.00481270 11.22261061
Ag 7.12912874 3.09585812 9.16734103
Ag 5.15351356 5.10874783 1.07590365
Ag 5.11788665 7.15071122 3.01066817
Ag 7.17240212 5.12634255 3.05860239
Ag 7.18894806 7.16923534 0.98576256
Ag 5.14589440 5.14630404 5.03021892
Ag 5.15660560 7.17518043 7.14421954
Ag 7.14379322 5.04787990 7.12114414
Ag 7.06816657 7.17354867 5.15128712
Ag 5.13342742 5.12385022 9.15759443
Ag 5.14487469 7.15726276 11.37046972
Ag 7.18482521 5.02151915 11.25708490
Ag 7.21119865 7.20969408 9.17240121
Ag 5.18967846 9.20741293 0.99296908
Ag 5.11824934 11.17061573 3.01995809
Ag 7.07314533 9.15586018 3.10562040
Ag 7.10747209 11.18711957 0.96496874
Ag 5.11559477 9.23561808 5.13706920
Ag 5.12269912 11.14809852 7.25060427
Ag 7.17191948 9.22414553 7.28356083
Ag 7.10306399 11.31425280 5.14664431
Ag 5.11682811 9.15355119 9.26624346
Ag 5.02572731 11.26434976 11.18710780
Ag 7.18227877 9.18827170 11.15453539
Ag 7.18617012 11.29901001 9.20131039
Ag 9.21711544 0.95405815 1.03651839
Ag 9.17371056 3.05751156 3.04599569
Ag 11.27473361 0.91859839 3.11972195
Ag 11.24439665 3.01869419 0.95287406
Ag 9.23520357 1.02116804 5.10809932
Ag 9.26627544 3.10786277 7.20976104
Ag 11.27734047 1.04327442 7.13196143
Ag 11.33868728 2.99092745 5.18584730
Ag 9.13385341 0.97893287 9.16733644
Ag 9.24656691 3.02439886 11.16051898
Ag 11.28678562 0.98514930 11.21263386
Ag 11.24669657 3.05270258 9.24057294
Ag 9.20206328 5.00641608 0.98856299
Ag 9.22342497 7.19116243 3.15355714
Ag 11.17844519 5.03848565 3.15620956
Ag 11.07755010 7.04726965 1.03064229
Ag 9.21520826 5.17373529 5.17990782
Ag 9.19862239 7.21301686 7.14285580
Ag 11.21552773 5.03108297 7.19651792
Ag 11.30737657 7.15577224 5.14301829
Ag 9.24934130 5.18837745 9.20928050
Ag 9.23475783 7.21430465 11.14491940
Ag 11.28543784 5.14615185 11.20287540
Ag 11.25933021 7.25696319 9.12280918
Ag 9.27490499 9.17262518 1.05964505
Ag 9.13979592 11.17543407 3.11362804
Ag 11.24428605 9.16434157 3.06496711
Ag 11.27395800 11.28240363 1.02731665
Ag 9.16601399 9.25076593 5.10024884
Ag 9.18641521 11.26460609 7.13225723
Ag 11.24380830 9.26996301 7.11563293
Ag 11.25360932 11.26376003 5.16208222
Ag 9.24811343 9.24955189 9.21280258
Ag 9.19758068 11.21441967 11.23835134
Ag 11.22036219 9.28480352 11.25592759
Ag 11.20074775 11.33156396 9.17938114
108
Step=400 Lattice="12.27 0 0  0 12.27 0  0 0 12.27" Properties=species:S:1:pos:R:3
Ag 1.05426054 1.08779647 1.17136767
Ag 0.97337394 3.08367167 3.01295766
Ag 3.05710081 0.93338183 3.15437416
Ag 3.04094265 3.14488860 1.08151982
Ag 1.13927598 0.92588878 5.16667287
Ag 1.12390970 3.02948187 7.23614319
Ag 3.10656977 1.02867787 7.15554892
Ag 3.00500570 3.07465359 5.02187878
Ag 0.98869590 1.06516870 9.17095281
Ag 1.06070933 3.06077597 11.29921831
Ag 3.08321752 0.94141516 11.19529976
Ag 3.11268232 3.05137335 9.17897776
Ag 0.99584688 5.20845097 1.07739227
Ag 1.00696757 7.15364567 3.09931210
Ag 3.02584638 5.17829178 3.09953676
Ag 3.03945771 7.16732069 1.04135545
Ag 1.01296173 5.06323382 5.14327264
Ag 1.02223356 7.19652814 7.16146453
Ag 3.11283597 5.18798072 7.15058291
Ag 3.11458875 7.21372412 5.01454647
Ag 1.01964707 5.16489048 9.20236381
Ag 0.92776968 7.25564727 11.25749811
Ag 3.13555893 5.14346348 11.24988540
Ag 3.08651843 7.14000192 9.26686677
Ag 0.89593153 9.19078784 0.98346167
Ag 1.16802218 11.10542908 3.09737179
Ag 3.14078237 9.23652002 3.06643396
Ag 3.02491934 11.24320466 0.91844320
Ag 1.01033220 9.21834423 5.11525368
Ag 0.88711548 11.28299161 7.10298437
Ag 3.06617960 9.20264129 7.19192806
Ag 3.11717989 11.21322689 5.20517823
Ag 1.03345850 9.25193078 9.19644524
Ag 0.95159373 11.24464777 11.20259880
Ag 3.06903301 9.16117382 11.24439538
Ag 2.93658081 11.30785971 9.06871555
Ag 5.10326718 1.00723741 0.98293494
Ag 5.08168761 3.11992388 3.18342894
Ag 7.16008123 0.98882019 3.09657262
Ag 7.14323911 3.03530489 0.97414197
Ag 5.12597188 1.03641967 5.09976522
Ag 5.02364553 3.08711330 7.07095645
Ag 7.16810588 1.01965211 7.15104243
Ag 7.14000421 3.04778638 5.08288459
Ag 5.12453641 1.05550225 9.12741941
Ag 5.14828265 3.02928771 11.23305406
Ag 7.17106951 1.00408572 11.21539034
Ag 7.13077683 3.10862931 9.17395586
Ag 5.15379454 5.10166261 1.08796295
Ag 5.10753885 7.14788072 3.01403795
Ag 7.16846761 5.12134771 3.07802837
Ag 7.18155244 7.17181799 0.98827938
Ag 5.14464271 5.13726906 5.01535513
Ag 5.14115049 7.18271767 7.13529671
Ag 7.15391529 5.05599012 7.13063392
Ag 7.06634950 7.16457556 5.14278336
Ag 5.13922993 5.12668718 9.15491157
Ag 5.14231372 7.16285520 11.37007073
Ag 7.17157587 5.02183163 11.25936281
Ag 7.19877816 7.21342608 9.18449500
Ag 5.17784973 9.19524287 0.99925798
Ag 5.11555380 11.18120026 3.02333524
Ag 7.06558331 9.16133600 3.10215323
Ag 7.10548364 11.18611549 0.97487532
Ag 5.11089804 9.22855358 5.13276682
Ag 5.12186030 11.15532470 7.24635929
Ag 7.16768268 9.21786960 7.28169845
Ag 7.10102187 11.31516776 5.13714798
Ag 5.11973771 9.15293625 9.26129264
Ag 5.03927360 11.26873392 11.17842893
Ag 7.17310422 9.18430795 11.15763417
Ag 7.18320695 11.29583215 9.21098387
Ag 9.21353647 0.94519670 1.03777294
Ag 9.17820748 3.05459253 3.03642035
Ag 11.28656670 0.92484465 3.11388428
Ag 11.24575910 3.01533419 0.94164439
Ag 9.24755005 1.01770526 5.10491332
Ag 9.27092671 3.10020105 7.21061490
Ag 11.26057835 1.04586682 7.13145913
Ag 11.33255108 2.98696037 5.20346614
Ag 9.13892818 0.97505941 9.18039206
Ag 9.24677113 3.02898652 11.15906036
Ag 11.29042092 0.97980235 11.21782591
Ag 11.22732216 3.06302213 9.25079162
Ag 9.20030564 5.00783107 0.99080682
Ag 9.23137139 7.19054769 3.15665068
Ag 11.18306587 5.03816980 3.15115363
Ag 11.08185965 7.05784858 1.02489206
Ag 9.22549921 5.17687091 5.18638347
Ag 9.20600455 7.22172193 7.15428232
Ag 11.21715810 5.04207586 7.20125202
Ag 11.32274471 7.14214531 5.14575608
Ag 9.24447055 5.19958011 9.20606138
Ag 9.22519232 7.20877359 11.15384635
Ag 11.29408350 5.15227192 11.19503619
Ag 11.25709313 7.25683257 9.13091748
Ag 9.26361277 9.17078262 1.05859234
Ag 9.14541649 11.17330597 3.10788829
Ag 11.24691868 9.15773975 3.06970987
Ag 11.26686431 11.26727392 1.02258202
Ag 9.16353819 9.24644690 5.09666682
Ag 9.19090122 11.26733683 7.12764969
Ag 11.24235034 9.27178605 7.11367900
Ag 11.25581747 11.25951503 5.15644664
Ag 9.24189854 9.25484807 9.20985148
Ag 9.19265403 11.21180877 11.23433471
Ag 11.22108773 9.27425936 11.24382862
Ag 11.20263483 11.34309994 9.19258918
108
Step=500 Lattice="12.27 0 0  0 12.27 0  0 0 12.27" Properties=species:S:1:pos:R:3
Ag 1.04814175 1.07574775 1.16284962
Ag 0.97323600 3.07553751 3.01495362
Ag 3.05392248 0.94126590 3.16791851
Ag 3.04246645 3.12844049 1.06696077
Ag 1.12425248 0.93962702 5.16124066
Ag 1.11784044 3.02612101 7.24474363
Ag 3.10676403 1.03180537 7.16571750
Ag 2.99221927 3.06205960 5.03619003
Ag 0.97909299 1.07310601 9.17932123
Ag 1.05570020 3.05876123 11.29465993
Ag 3.07948544 0.95759865 11.17573272
Ag 3.11495695 3.04263234 9.17698869
Ag 1.00024158 5.20455690 1.08412909
Ag 0.99517371 7.14266299 3.09059199
Ag 3.03784041 5.18086553 3.09384954
Ag 3.05122483 7.17073279 1.04978537
Ag 1.02301192 5.05552241 5.14661426
Ag 1.02289527 7.20015032 7.17177106
Ag 3.11539673 5.18752290 7.15334299
Ag 3.11430119 7.20580928 5.00530309
Ag 1.02347640 5.16569047 9.21475625
Ag 0.93693329 7.24925665 11.25855743
Ag 3.15146247 5.14247154 11.25312544
Ag 3.09202196 7.14342032 9.25276559
Ag 0.90669859 9.18678705 0.98808483
Ag 1.16402819 11.10367559 3.09646459
Ag 3.14099759 9.23695312 3.05424255
Ag 3.02001286 11.25746670 0.91764375
Ag 1.00717896 9.22035410 5.11259372
Ag 0.87761035 11.27812098 7.10730558
Ag 3.07504519 9.22073609 7.18796088
Ag 3.12388079 11.21544806 5.20215304
Ag 1.02491497 9.25243516 9.19266905
Ag 0.94957507 11.24454484 11.20198180
Ag 3.06584708 9.16079501 11.23491254
Ag 2.94195039 11.32538815 9.05709437
Ag 5.10395265 1.00438726 0.98004727
Ag 5.07365515 3.10653711 3.18925999
Ag 7.15383480 0.98152213 3.09593789
Ag 7.14409488 3.04017767 0.97844785
Ag 5.13704403 1.04157517 5.08525082
Ag 5.04124021 3.09111426 7.06819180
Ag 7.18319928 1.01441824 7.16303210
Ag 7.15654681 3.04136036 5.08497904
Ag 5.12203046 1.07098122 9.12089894
Ag 5.16735317 3.03206027 11.22912722
Ag 7.16462031 1.00349826 11.20870192
Ag 7.13306461 3.12055479 9.18026351
Ag 5.15349916 5.09416799 1.09927996
Ag 5.09745739 7.14545251 3.01750278
Ag 7.16573006 5.11653905 3.09708013
Ag 7.17568569 7.17386145 0.99147116
Ag 5.14225077 5.12863733 5.00283830
Ag 5.12497140 7.19012396 7.12710210
Ag 7.16411153 5.06508768 7.14023725
Ag 7.06647870 7.15596319 5.13399759
Ag 5.14509857 5.12983899 9.15312122
Ag 5.13972395 7.16754853 11.36757188
Ag 7.15835683 5.02406831 11.26101022
Ag 7.18556452 7.21494152 9.19690088
Ag 5.16439785 9.18327430 1.00512515
Ag 5.11265233 11.19360806 3.02713056
Ag 7.05986015 9.16706826 3.09832356
Ag 7.10473756 11.18587726 0.98488648
Ag 5.10661475 9.22129448 5.12888177
Ag 5.12118467 11.16399895 7.24149540
Ag 7.16358653 9.21203827 7.27754962
Ag 7.09942055 11.31451667 5.12782573
Ag 5.12175115 9.15274946 9.25593731
Ag 5.05414984 11.27221307 11.16945136
Ag 7.16403453 9.18120465 11.16237278
Ag 7.17926216 11.29152993 9.22064712
Ag 9.20957171 0.93698013 1.03883578
Ag 9.18324526 3.05097532 3.02761318
Ag 11.29825501 0.93193521 3.10799146
Ag 11.24682186 3.01251821 0.93141126
Ag 9.25901716 1.01467641 5.10180008
Ag 9.27369911 3.09130340 7.21084581
Ag 11.24319722 1.04841718 7.13219914
Ag 11.32603232 2.98386944 5.21937221
Ag 9.14532577 0.97267153 9.19341535
Ag 9.24593891 3.03356110 11.15874592
Ag 11.29320418 0.97534653 11.22395876
Ag 11.20919016 3.07313570 9.26025585
Ag 9.19821510 5.01017000 0.99295620
Ag 9.23804696 7.18904374 3.15928329
Ag 11.18827385 5.03849637 3.14526119
Ag 11.08825593 7.06922141 1.01942398
Ag 9.23514437 5.17883278 5.19220372
Ag 9.21338354 7.23011206 7.16529679
Ag 11.22062160 5.05471261 7.20566772
Ag 11.33694603 7.12871994 5.14876286
Ag 9.23866326 5.20977439 9.20263332
Ag 9.21544086 7.20259904 11.16427594
Ag 11.30214437 5.15793336 11.18776489
Ag 11.25504882 7.25596574 9.13951848
Ag 9.25066239 9.16975569 1.05697546
Ag 9.15146371 11.17208246 3.10127040
Ag 11.24981766 9.15211766 3.07503369
Ag 11.25970753 11.25214152 1.01862672
Ag 9.16091516 9.24131895 5.09415218
Ag 9.19532476 11.26989598 7.12321943
Ag 11.24034508 9.27251757 7.11247024
Ag 11.25720101 11.25495154 5.14846724
Ag 9.23572963 9.26039563 9.20594218
Ag 9.18767693 11.21002125 11.23118619
Ag 11.22150825 9.26285383 11.23121411
Ag 11.20494926 11.35311591 9.20509459
108
Step=600 Lattice="12.27 0 0  0 12.27 0  0 0 12.27" Properties=species:S:1:pos:R:3
Ag 1.04229277 1.06159943 1.15180055
Ag 0.97316509 3.06800458 3.01862744
Ag 3.05184515 0.94976055 3.17948159
Ag 3.04505756 3.11129110 1.05218898
Ag 1.10747260 0.95454091 5.15493712
Ag 1.11053893 3.02423245 7.25191429
Ag 3.10681802 1.03484007 7.17460286
Ag 2.97992083 3.04975052 5.05189724
Ag 0.96991130 1.08048598 9.18822654
Ag 1.05109751 3.05716426 11.28932629
Ag 3.07481435 0.97546899 11.15661403
Ag 3.11701579 3.03514992 9.17627429
Ag 1.00418123 5.19951508 1.08948909
Ag 0.98324957 7.13247247 3.08165628
Ag 3.04973462 5.18213569 3.08757732
Ag 3.06270166 7.17452923 1.05778292
Ag 1.03305621 5.04863877 5.15024153
Ag 1.02430161 7.20332993 7.18179532
Ag 3.11716837 5.18657574 7.15537828
Ag 3.11302575 7.19776117 4.99830888
Ag 1.02790993 5.16580981 9.22695465
Ag 0.94707345 7.24159224 11.25933659
Ag 3.16634418 5.14086348 11.25669756
Ag 3.09725337 7.14723799 9.23815001
Ag 0.91896743 9.18251704 0.99353580
Ag 1.15753903 11.10411929 3.09498014
Ag 3.14076422 9.23609551 3.04138086
Ag 3.01546780 11.27105643 0.91799471
Ag 1.00499609 9.22164521 5.11043971
Ag 0.87097310 11.27272130 7.11344532
Ag 3.08332377 9.23772634 7.18379507
Ag 3.13048952 11.21770556 5.19880335
Ag 1.01591930 9.25271963 9.18857753
Ag 0.94923953 11.24460440 11.20186441
Ag 3.06229991 9.16142217 11.22566056
Ag 2.94851449 11.34162590 9.04764387
Ag 5.10420354 1.00182403 0.97821615
Ag 5.06597225 3.09163057 3.19180253
Ag 7.14752422 0.97474732 3.09394200
Ag 7.14525252 3.04420784 0.98406965
Ag 5.14720326 1.04591531 5.07188261
Ag 5.05989812 3.09540563 7.06550164
Ag 7.19775763 1.01011295 7.17450790
Ag 7.17430471 3.03527208 5.08800078
Ag 5.12001670 1.08569433 9.11516501
Ag 5.18472567 3.03512849 11.22535003
Ag 7.15806245 1.00312250 11.20272581
Ag 7.13616303 3.13142332 9.18607935
Ag 5.15268859 5.08634551 1.10975699
Ag 5.08804351 7.14351845 3.02104287
Ag 7.16435864 5.11191089 3.11537002
Ag 7.17129301 7.17521865 0.99544076
Ag 5.13871505 5.12045667 4.99313620
Ag 5.10840577 7.19721220 7.11959455
Ag 7.17429578 5.07516008 7.14968744
Ag 7.06847465 7.14783545 5.12515305
Ag 5.15085834 5.13330685 9.15216496
Ag 5.13709116 7.17121195 11.36302997
Ag 7.14542453 5.02836749 11.26214392
Ag 7.17174232 7.21426011 9.20935537
Ag 5.14955727 9.17198539 1.01050863
Ag 5.10942185 11.20754164 3.03121947
Ag 7.05596949 9.17292379 3.09421463
Ag 7.10507275 11.18627263 0.99481901
Ag 5.10281319 9.21398809 5.12533745
Ag 5.12094842 11.17409654 7.23602654
Ag 7.15964842 9.20674613 7.27114835
Ag 7.09836481 11.31226568 5.11890764
Ag 5.12279135 9.15311972 9.25018778
Ag 5.06982055 11.27485717 11.16039065
Ag 7.15519500 9.17907651 11.16881566
Ag 7.17441039 11.28615802 9.22994288
Ag 9.20527061 0.92950192 1.03963499
Ag 9.18881577 3.04665391 3.01966973
Ag 11.30955520 0.93968348 3.10205551
Ag 11.24755278 3.01033105 0.92231130
Ag 9.26937992 1.01203217 5.09858027
Ag 9.27450795 3.08152160 7.21056109
Ag 11.22558897 1.05058750 7.13443764
Ag 11.31928236 2.98201936 5.23319836
Ag 9.15285781 0.97177322 9.20630350
Ag 9.24384888 3.03813856 11.15979858
Ag 11.29496452 0.97193572 11.23112305
Ag 11.19265399 3.08291069 9.26871604
Ag 9.19587698 5.01354245 0.99496372
Ag 9.24339677 7.18661122 3.16136847
Ag 11.19400397 5.03933249 3.13863919
Ag 11.09661126 7.08122082 1.01423261
Ag 9.24409251 5.17961143 5.19735852
Ag 9.22059005 7.23810890 7.17571673
Ag 11.22584474 5.06870507 7.20986375
Ag 11.34983346 7.11567959 5.15205831
Ag 9.23194818 5.21885792 9.19910930
Ag 9.20553915 7.19590491 11.17602092
Ag 11.30937363 5.16314889 11.18133966
Ag 11.25319078 7.25441930 9.14856448
Ag 9.23628103 9.16947573 1.05482328
Ag 9.15791785 11.17172511 3.09393408
Ag 11.25289969 9.14751283 3.08079006
Ag 11.25255791 11.23705925 1.01548221
Ag 9.15815524 9.23546961 5.09271514
Ag 9.19959380 11.27215010 7.11907502
Ag 11.23774848 9.27209029 7.11203051
Ag 11.25777154 11.25017167 5.13820678
Ag 9.22963852 9.26605318 9.20122393
Ag 9.18269998 11.20895688 11.22907073
Ag 11.22162563 9.25074597 11.21840518
Ag 11.20759709 11.36132810 9.21659813
108
Step=700 Lattice="12.27 0 0  0 12.27 0  0 0 12.27" Properties=species:S:1:pos:R:3
Ag 1.03680884 1.04567228 1.13841785
Ag 0.97325793 3.06109884 3.02372282
Ag 3.05066296 0.95869685 3.18878694
Ag 3.04860946 3.09357121 1.03738841
Ag 1.08913924 0.97006042 5.14820007
Ag 1.10197742 3.02388061 7.25772387
Ag 3.10662536 1.03795942 7.18162556
Ag 2.96849359 3.03797999 5.06886639
Ag 0.96112217 1.08722061 9.19745091
Ag 1.04694471 3.05609809 11.28328124
Ag 3.06950235 0.99454270 11.13831793
Ag 3.11884676 3.02933491 9.17675076
Ag 1.00774086 5.19326929 1.09327524
Ag 0.97148813 7.12317721 3.07267609
Ag 3.06116638 5.18174997 3.08075715
Ag 3.07360470 7.17851235 1.06508950
Ag 1.04296189 5.04262936 5.15407251
Ag 1.02652909 7.20608020 7.19142077
Ag 3.11814272 5.18498910 7.15668901
Ag 3.11053849 7.18976937 4.99363971
Ag 1.03307022 5.16521746 9.23874798
Ag 0.95823787 7.23281797 11.25988137
Ag 3.18008106 5.13865868 11.26051421
Ag 3.10215440 7.15139265 9.22327110
Ag 0.93253987 9.17804438 0.99959697
Ag 1.14874749 11.10678461 3.09296283
Ag 3.13996314 9.23414683 3.02816972
Ag 3.01146736 11.28389296 0.91926371
Ag 1.00393358 9.22210421 5.10883564
Ag 0.86716556 11.26722674 7.12107900
Ag 3.09072886 9.25340398 7.17949506
Ag 3.13671610 11.22020331 5.19509205
Ag 1.00675222 9.25290111 9.18422755
Ag 0.95066064 11.24471586 11.20225779
Ag 3.05847282 9.16316022 11.21672039
Ag 2.95603354 11.35620025 9.04069877
Ag 5.10400223 0.99961133 0.97733551
Ag 5.05870757 3.07542627 3.19103855
Ag 7.14144221 0.96867950 3.09050092
Ag 7.14671737 3.04731086 0.99096177
Ag 5.15633278 1.04936450 5.06021445
Ag 5.07941030 3.09991482 7.06285610
Ag 7.21161996 1.00673020 7.18531340
Ag 7.19311355 3.02957254 5.09190652
Ag 5.11879181 1.09942627 9.11026739
Ag 5.20005170 3.03840656 11.22181836
Ag 7.15157261 1.00302486 11.19761878
Ag 7.14021583 3.14106479 9.19123014
Ag 5.15145312 5.07828898 1.11930698
Ag 5.07970898 7.14214973 3.02466394
Ag 7.16446602 5.10742490 3.13252391
Ag 7.16825131 7.17576681 1.00026234
Ag 5.13405485 5.11273044 4.98659510
Ag 5.09179588 7.20380592 7.11272832
Ag 7.18436639 5.08618182 7.15873628
Ag 7.07220578 7.14030694 5.11646989
Ag 5.15632226 5.13706941 9.15195787
Ag 5.13440432 7.17376416 11.35655534
Ag 7.13302784 5.03481784 11.26291522
Ag 7.15751974 7.21148722 9.22159981
Ag 5.13363685 9.16180535 1.01532929
Ag 5.10575700 11.22264215 3.03547281
Ag 7.05384525 9.17879629 3.08989686
Ag 7.10629938 11.18717686 1.00450545
Ag 5.09954834 9.20678635 5.12202961
Ag 5.12140610 11.18557092 7.22997215
Ag 7.15585532 9.20204208 7.26258951
Ag 7.09795364 11.30841593 5.11059852
Ag 5.12281487 9.15416497 9.24405493
Ag 5.08573520 11.27676234 11.15148606
Ag 7.14670008 9.17798301 11.17697134
Ag 7.16878736 11.27981151 9.23853368
Ag 9.20069739 0.92284944 1.04009776
Ag 9.19492118 3.04164773 3.01267232
Ag 11.32021216 0.94791845 3.09607129
Ag 11.24794137 3.00884820 0.91447497
Ag 9.27843371 1.00971036 5.09507255
Ag 9.27331410 3.07125637 7.20987547
Ag 11.20819805 1.05204504 7.13836932
Ag 11.31242779 2.98174570 5.24464604
Ag 9.16129988 0.97232019 9.21896291
Ag 9.24030863 3.04274893 11.16241945
Ag 11.29556691 0.96967564 11.23937939
Ag 11.17801179 3.09223650 9.27593569
Ag 9.19337377 5.01803176 0.99680013
Ag 9.24741886 7.18323797 3.16281598
Ag 11.20016864 5.04054189 3.13139355
Ag 11.10675431 7.09369702 1.00932864
Ag 9.25231947 5.17921323 5.20185052
Ag 9.22745891 7.24562152 7.18536765
Ag 11.23269424 5.08372204 7.21394419
Ag 11.36128753 7.10320836 5.15563936
Ag 9.22439527 5.22674284 9.19561220
Ag 9.19553470 7.18881167 11.18886901
Ag 11.31552732 5.16792860 11.17602518
Ag 11.25152233 7.25223334 9.15799250
Ag 9.22073111 9.16985103 1.05218063
Ag 9.16475385 11.17218309 3.08605731
Ag 11.25604520 9.14393245 3.08681049
Ag 11.24549368 11.22206397 1.01314567
Ag 9.15528019 9.22900722 5.09233040
Ag 9.20362762 11.27397623 7.11530145
Ag 11.23456489 9.27048687 7.11233845
Ag 11.25759186 11.24526529 5.12585336
Ag 9.22362101 9.27166707 9.19587797
Ag 9.17778214 11.20850743 11.22811256
Ag 11.22145652 9.23812383 11.20572961
Ag 11.21048208 11.36749437 9.22686202
108
Step=800 Lattice="12.27 0 0  0 12.27 0  0 0 12.27" Properties=species:S:1:pos:R:3
Ag 1.03174845 1.02835575 1.12294459
Ag 0.97362363 3.05482791 3.02993293
Ag 3.05013820 0.96790277 3.19562780
Ag 3.05298377 3.07539952 1.02272006
Ag 1.06946601 0.98563889 5.14142044
Ag 1.09216100 3.02507621 7.26228755
Ag 3.10607808 1.04134604 7.18631844
Ag 2.95832953 3.02697360 5.08692818
Ag 0.95270432 1.09323609 9.20675418
Ag 1.04325773 3.05567303 11.27662079
Ag 3.06384998 1.01430816 11.12124289
Ag 3.12041687 3.02558196 9.17825287
Ag 1.01101781 5.18577292 1.09532308
Ag 0.96018786 7.11485450 3.06382902
Ag 3.07179451 5.17943202 3.07345467
Ag 3.08365228 7.18244104 1.07143026
Ag 1.05259807 5.03754601 5.15801780
Ag 1.02962971 7.20841046 7.20053551
Ag 3.11832552 5.18262395 7.15730437
Ag 3.10663222 7.18199569 4.99130499
Ag 1.03907037 5.16389652 9.24991772
Ag 0.97045733 7.22312013 11.26024259
Ag 3.19255921 5.13587062 11.26449336
Ag 3.10665829 7.15582106 9.20839371
Ag 0.94720885 9.17344640 1.00604613
Ag 1.13790703 11.11162750 3.09047114
Ag 3.13844869 9.23137075 3.01498265
Ag 3.00820336 11.29589720 0.92123960
Ag 1.00410601 9.22166563 5.10780912
Ag 0.86605606 11.26202766 7.12982720
Ag 3.09702350 9.26760367 7.17514276
Ag 3.14229693 11.22311144 5.19096584
Ag 0.99767801 9.25307110 9.17969621
Ag 0.95384564 11.24477360 11.20316289
Ag 3.05445050 9.16607988 11.20815350
Ag 2.96429840 11.36877537 9.03655201
Ag 5.10335050 0.99779672 0.97727205
Ag 5.05192875 3.05824882 3.18704254
Ag 7.13587708 0.96348525 3.08557985
Ag 7.14847975 3.04943904 0.99903544
Ag 5.16435829 1.05186361 5.05075220
Ag 5.09957160 3.10457480 7.06025136
Ag 7.22464267 1.00424549 7.19532541
Ag 7.21275869 3.02430114 5.09662220
Ag 5.11862180 1.11197747 9.10623949
Ag 5.21302925 3.04181279 11.21863111
Ag 7.14532982 1.00326186 11.19351551
Ag 7.14533013 3.14934862 9.19556916
Ag 5.14990706 5.07008980 1.12785200
Ag 5.07284390 7.14138793 3.02838889
Ag 7.16611264 5.10301411 3.14820457
Ag 7.16637536 7.17541069 1.00597447
Ag 5.12832179 5.10541901 4.98341703
Ag 5.07548109 7.20974100 7.10645917
Ag 7.19421664 5.09811190 7.16715567
Ag 7.07750012 7.13347173 5.10816988
Ag 5.16129793 5.14107756 9.15240148
Ag 5.13165136 7.17518091 11.34831393
Ag 7.12139869 5.04344326 11.26348818
Ag 7.14310727 7.20683156 9.23339342
Ag 5.11701276 9.15312036 1.01949040
Ag 5.10157195 11.23851346 3.03975989
Ag 7.05337250 9.18459951 3.08543227
Ag 7.10820690 11.18848158 1.01378075
Ag 5.09686162 9.19984147 5.11883488
Ag 5.12277403 11.19835054 7.22335713
Ag 7.15217919 9.19793478 7.25202220
Ag 7.09827522 11.30302051 5.10306654
Ag 5.12182192 9.15598623 9.23755202
Ag 5.10135328 11.27803929 11.14299715
Ag 7.13864623 9.17792380 11.18678815
Ag 7.16258666 11.27261958 9.24608263
Ag 9.19592944 0.91711616 1.04015744
Ag 9.20155114 3.03599457 3.00668168
Ag 11.32996609 0.95647896 3.09000193
Ag 11.24799856 3.00814239 0.90802281
Ag 9.28600425 1.00763856 5.09110551
Ag 9.27012461 3.06093156 7.20890755
Ag 11.19146660 1.05250239 7.14410342
Ag 11.30556133 2.98332827 5.25350403
Ag 9.17040239 0.97422683 9.23132408
Ag 9.23517429 3.04742625 11.16676768
Ag 11.29490933 0.96861028 11.24874338
Ag 11.16549421 3.10102837 9.28172242
Ag 9.19078369 5.02368810 0.99845718
Ag 9.25016899 7.17894084 3.16353609
Ag 11.20666874 5.04199468 3.12362304
Ag 11.11847741 7.10651156 1.00472265
Ag 9.25983839 5.17764736 5.20569381
Ag 9.23383172 7.25254634 7.19410014
Ag 11.24100052 5.09940819 7.21801483
Ag 11.37121677 7.09148148 5.15947804
Ag 9.21611970 5.23335868 9.19227205
Ag 9.18547164 7.18143471 11.20258908
Ag 11.32038319 5.17227773 11.17206106
Ag 11.25003524 7.24942952 9.16772099
Ag 9.20430183 9.17077798 1.04910043
Ag 9.17192390 11.17338827 3.07782363
Ag 11.25911953 9.14134443 3.09292969
Ag 11.23860079 11.20718165 1.01158254
Ag 9.15232498 9.22205330 5.09292659
Ag 9.20735598 11.27526376 7.11197098
Ag 11.23084966 9.26774525 7.11333139
Ag 11.25676715 11.24030701 5.11170574
Ag 9.21764745 9.27708898 9.19010509
Ag 9.17298649 11.20856145 11.22838978
Ag 11.22102059 9.22519790 11.19352493
Ag 11.21350522 11.37142498 9.23573240
108
Step=900 Lattice="12.27 0 0  0 12.27 0  0 0 12.27" Properties=species:S:1:pos:R:3
Ag 1.02713037 1.01008919 1.10564891
Ag 0.97437795 3.04919843 3.03692616
Ag 3.05000634 0.97721141 3.19987680
Ag 3.05802021 3.05690527 1.00833217
Ag 1.04867164 1.00077519 5.13494759
Ag 1.08111681 3.02777859 7.26576853
Ag 3.10507758 1.04515760 7.18835202
Ag 2.94980510 3.01692080 5.10588938
Ag 0.94464362 1.09847983 9.21588255
Ag 1.04002463 3.05599441 11.26947505
Ag 3.05814893 1.03424094 11.10578843
Ag 3.12168343 3.02425121 9.18053761
Ag 1.01410803 5.17699755 1.09550801
Ag 0.94964467 7.10754461 3.05528563
Ag 3.08129110 5.17499255 3.06577519
Ag 3.09256666 7.18603153 1.07653677
Ag 1.06183240 5.03344205 5.16196571
Ag 1.03360708 7.21032700 7.20903182
Ag 3.11773831 5.17935523 7.15728784
Ag 3.10116350 7.17455991 4.99124263
Ag 1.04599135 5.16184583 9.26025783
Ag 0.98374275 7.21269079 11.26047192
Ag 3.20367378 5.13253609 11.26856106
Ag 3.11068717 7.16045783 9.19378451
Ag 0.96275041 9.16881264 1.01266364
Ag 1.12531657 11.11854107 3.08757408
Ag 3.13605877 9.22806602 3.00223640
Ag 3.00586565 11.30696909 0.92374040
Ag 1.00558831 9.22031332 5.10736923
Ag 0.86744169 11.25745261 7.13928256
Ag 3.10201695 9.28021703 7.17082028
Ag 3.14699618 11.22656004 5.18636693
Ag 0.98893988 9.25329347 9.17508083
Ag 0.95873403 11.24468408 11.20456385
Ag 3.05032619 9.17021770 11.20000362
Ag 2.97313664 11.37908551 9.03542343
Ag 5.10227757 0.99640936 0.97787105
Ag 5.04572143 3.04048821 3.17997621
Ag 7.13109704 0.95930642 3.07920433
Ag 7.15051461 3.05057375 1.00816187
Ag 5.17125359 1.05338743 5.04394627
Ag 5.12017184 3.10931750 7.05771168
Ag 7.23671261 1.00260102 7.20444419
Ag 7.23300098 3.01948663 5.10203094
Ag 5.11971877 1.12317892 9.10309300
Ag 5.22343071 3.04527033 11.21589013
Ag 7.13950965 1.00387644 11.19050938
Ag 7.15156578 3.15618612 9.19898689
Ag 5.14818322 5.06185271 1.13532171
Ag 5.06777918 7.14123760 3.03226533
Ag 7.16929306 5.09858160 3.16213013
Ag 7.16542797 7.17408427 1.01259168
Ag 5.12160760 5.09844477 4.98364896
Ag 5.05981066 7.21486763 7.10073963
Ag 7.20373059 5.11089179 7.17473779
Ag 7.08415654 7.12742831 5.10046720
Ag 5.16559435 5.14525936 9.15337768
Ag 5.12881344 7.17549911 11.33852582
Ag 7.11074930 5.05418845 11.26402996
Ag 7.12874508 7.20059490 9.24451910
Ag 5.10010884 9.14626974 1.02287420
Ag 5.09680440 11.25473548 3.04395191
Ag 7.05440919 9.19026333 3.08087964
Ag 7.11057103 11.19010045 1.02249216
Ag 5.09478237 9.19330648 5.11562055
Ag 5.12522087 11.21233584 7.21621198
Ag 7.14858927 9.19441004 7.23964126
Ag 7.09940238 11.29617788 5.09643411
Ag 5.11985844 9.15866249 9.23069618
Ag 5.11614428 11.27878814 11.13519933
Ag 7.13110622 9.17884536 11.19815396
Ag 7.15605219 11.26472960 9.25225207
Ag 9.19105514 0.91239110 1.03976212
Ag 9.20869755 3.02975714 3.00173642
Ag 11.33856019 0.96522024 3.08376536
Ag 11.24775499 3.00827940 0.90306151
Ag 9.29196750 1.00572624 5.08653961
Ag 9.26499822 3.05096007 7.20777558
Ag 11.17582288 1.05175229 7.15164777
Ag 11.29873209 2.98696853 5.25966245
Ag 9.17990312 0.97737391 9.24335452
Ag 9.22837067 3.05220940 11.17294185
Ag 11.29292460 0.96870546 11.25916664
Ag 11.15525087 3.10923567 9.28593222
Ag 9.18819007 5.03052330 0.99994983
Ag 9.25173754 7.17376566 3.16344457
Ag 11.21338602 5.04356921 3.11543278
Ag 11.13154457 7.11955359 1.00042205
Ag 9.26667849 5.17493611 5.20891216
Ag 9.23956007 7.25876782 7.20179264
Ag 11.25055560 5.11540505 7.22217977
Ag 11.37955756 7.08066602 5.16352037
Ag 9.20728628 5.23865481 9.18922573
Ag 9.17540483 7.17388523 11.21693634
Ag 11.32374708 5.17619531 11.16964980
Ag 11.24871810 7.24601110 9.17764788
Ag 9.18729641 9.17214491 1.04564267
Ag 9.17936413 11.17525922 3.06943626
Ag 11.26199257 9.13968090 3.09899318
Ag 11.23196009 11.19243261 1.01072660
Ag 9.14933931 9.21473536 5.09439877
Ag 9.21071772 11.27591668 7.10913246
Ag 11.22668873 9.26395824 7.11491267
Ag 11.25541959 11.23535276 5.09614206
Ag 9.21168060 9.28218493 9.18411687
Ag 9.16837589 11.20900861 11.22993698
Ag 11.22034143 9.21218792 11.18212112
Ag 11.21657978 11.37299128 9.24313273
108
Step=1000 Lattice="12.27 0 0  0 12.27 0  0 0 12.27" Properties=species:S:1:pos:R:3
Ag 1.02293498 0.99135194 1.08682948
Ag 0.97563768 3.04422842 3.04436879
Ag 3.04998105 0.98647579 3.20149093
Ag 3.06355542 3.03822997 0.99436106
Ag 1.02701830 1.01501264 5.12909496
Ag 1.06888566 3.03190052 7.26835163
Ag 3.10354377 1.04950050 7.18757670
Ag 2.94325597 3.00796995 5.12551594
Ag 0.93693297 1.10290177 9.22458679
Ag 1.03720673 3.05715847 11.26198923
Ag 3.05267404 1.05382534 11.09233589
Ag 3.12260779 3.02565178 9.18329555
Ag 1.01710736 5.16693714 1.09375171
Ag 0.94013725 7.10125302 3.04720222
Ag 3.08936326 5.16833165 3.05785421
Ag 3.10008697 7.18895642 1.08016420
Ag 1.07053575 5.03036661 5.16579335
Ag 1.03842778 7.21183435 7.21680712
Ag 3.11642892 5.17507968 7.15672972
Ag 3.09404479 7.16754843 4.99331843
Ag 1.05387739 5.15908198 9.26959701
Ag 0.99809373 7.20173559 11.26061786
Ag 3.21332950 5.12869485 11.27265322
Ag 3.11416600 7.16522980 9.17971304
Ag 0.97893343 9.16424572 1.01923723
Ag 1.11130565 11.12736481 3.08435228
Ag 3.13263005 9.22454685 2.99037833
Ag 3.00463828 11.31700304 0.92661712
Ag 1.00841232 9.21807873 5.10750511
Ag 0.87107299 11.25375827 7.14903580
Ag 3.10557148 9.29119642 7.16660179
Ag 3.15061033 11.23063729 5.18124473
Ag 0.98075687 9.25360385 9.17049517
Ag 0.96520017 11.24436977 11.20642227
Ag 3.04619069 9.17556483 11.19229924
Ag 2.98241541 11.38696065 9.03743042
Ag 5.10083593 0.99545786 0.97896142
Ag 5.04018256 3.02257920 3.17008140
Ag 7.12733398 0.95625313 3.07148115
Ag 7.15278292 3.05073896 1.01817780
Ag 5.17704766 1.05393816 5.04015848
Ag 5.14101426 3.11407150 7.05529033
Ag 7.24772910 1.00171139 7.21259757
Ag 7.25357518 3.01514629 5.10798602
Ag 5.12221959 1.13290367 9.10081477
Ag 5.23112001 3.04873003 11.21369284
Ag 7.13427712 1.00489472 11.18865728
Ag 7.15892606 3.16153996 9.20142029
Ag 5.14642625 5.05368780 1.14165256
Ag 5.06475911 7.14166199 3.03635931
Ag 7.17392877 5.09401652 3.17408816
Ag 7.16513304 7.17175145 1.02010887
Ag 5.11404444 5.09171309 4.98718497
Ag 5.04512370 7.21905301 7.09552050
Ag 7.21278100 5.12444390 7.18129552
Ag 7.09196150 7.12226272 5.09355522
Ag 5.16902885 5.14950917 9.15475212
Ag 5.12585874 7.17481374 11.32745995
Ag 7.10124520 5.06691314 11.26470489
Ag 7.11468712 7.19315969 9.25477100
Ag 5.08339134 9.14153007 1.02534529
Ag 5.09142782 11.27087719 3.04792628
Ag 7.05678833 9.19573212 3.07630392
Ag 7.11316010 11.19196711 1.03050127
Ag 5.09330685 9.18731528 5.11225496
Ag 5.12883803 11.22739722 7.20857342
Ag 7.14504696 9.19142463 7.22567826
Ag 7.10138882 11.28803132 5.09076730
Ag 5.11701235 9.16225120 9.22350921
Ag 5.12959944 11.27909579 11.12837637
Ag 7.12412403 9.18064092 11.21089962
Ag 7.14946576 11.25631548 9.25673590
Ag 9.18616302 0.90875646 1.03886854
Ag 9.21635374 3.02302769 2.99785338
Ag 11.34574880 0.97401045 3.07726222
Ag 11.24725776 3.00931005 0.89967979
Ag 9.29626079 1.00387662 5.08128918
Ag 9.25805533 3.04173561 7.20659340
Ag 11.16165857 1.04969101 7.16090185
Ag 11.29193539 2.99277537 5.26311757
Ag 9.18953970 0.98161626 9.25501608
Ag 9.21990508 3.05713148 11.18096705
Ag 11.28958139 0.96986341 11.27052878
Ag 11.14733418 3.11682349 9.28849455
Ag 9.18566902 5.03850749 1.00131682
Ag 9.25224543 7.16778560 3.16246766
Ag 11.22019304 5.04515433 3.10691755
Ag 11.14569969 7.13272134 0.99642896
Ag 9.27287888 5.17111804 5.21153679
Ag 9.24451643 7.26416008 7.20834172
Ag 11.26112046 5.13137081 7.22653763
Ag 11.38627304 7.07092945 5.16768647
Ag 9.19809792 5.24261056 9.18661545
Ag 9.16541070 7.16627316 11.23165712
Ag 11.32546574 5.17967374 11.16894554
Ag 11.24755875 7.24196516 9.18765155
Ag 9.17003915 9.17383154 1.04188626
Ag 9.18699463 11.17770551 3.06110884
Ag 11.26453099 9.13884666 3.10485548
Ag 11.22565149 11.17783623 1.01047984
Ag 9.14638877 9.20718057 5.09661314
Ag 9.21365932 11.27585601 7.10681057
Ag 11.22222180 9.25926744 7.11696104
Ag 11.25368595 11.23044034 5.07959834
Ag 9.20567908 9.28683141 9.17812956
Ag 9.16400899 11.20974350 11.23273671
Ag 11.21945222 9.19933449 11.17183237
Ag 11.21962213 11.37212242 9.24904942
108
Step=1100 Lattice="12.27 0 0  0 12.27 0  0 0 12.27" Properties=species:S:1:pos:R:3
Ag 1.01910997 0.97262833 1.06680870
Ag 0.97751470 3.03995256 3.05194353
Ag 3.04976107 0.99555772 3.20051113
Ag 3.06939645 3.01952137 0.98093902
Ag 1.00480558 1.02796134 5.12411339
Ag 1.05553868 3.03731474 7.27022930
Ag 3.10142160 1.05438714 7.18404695
Ag 2.93895318 3.00022837 5.14553383
Ag 0.92957287 1.10645757 9.23264339
Ag 1.03474155 3.05924786 11.25433206
Ag 3.04766824 1.07256312 11.08122419
Ag 3.12317499 3.03000570 9.18617099
Ag 1.02010649 5.15561254 1.09002328
Ag 0.93192534 7.09595604 3.03971497
Ag 3.09577792 5.15943983 3.04984829
Ag 3.10599918 7.19086488 1.08210307
Ag 1.07858397 5.02835780 5.16937125
Ag 1.04402791 7.21293671 7.22377291
Ag 3.11446085 5.16972348 7.15573719
Ag 3.08526266 7.16102503 4.99733122
Ag 1.06272728 5.15564196 9.27778979
Ag 1.01349141 7.19045940 11.26072200
Ag 3.22144195 5.12438764 11.27671629
Ag 3.11702663 7.17007450 9.16644281
Ag 0.99552992 9.15986260 1.02556457
Ag 1.09622158 11.13789549 3.08087572
Ag 3.12801697 9.22111951 2.97986735
Ag 3.00469464 11.32589236 0.92975433
Ag 1.01256862 9.21503657 5.10818565
Ag 0.87667715 11.25112619 7.15870579
Ag 3.10761184 9.30055352 7.16254724
Ag 3.15297026 11.23539790 5.17556603
Ag 0.97332989 9.25400678 9.16606431
Ag 0.97305972 11.24376983 11.20867569
Ag 3.04214093 9.18208567 11.18505667
Ag 2.99204024 11.39234270 9.04256770
Ag 5.09909320 0.99492824 0.98036013
Ag 5.03541795 3.00497153 3.15767299
Ag 7.12476874 0.95439800 3.06259293
Ag 7.15523481 3.05000225 1.02889273
Ag 5.18180376 1.05356190 5.03963154
Ag 5.16190824 3.11876052 7.05306937
Ag 7.25760305 1.00146877 7.21973658
Ag 7.27417830 3.01129044 5.11431477
Ag 5.12617054 1.14107394 9.09936742
Ag 5.23606387 3.05215828 11.21212283
Ag 7.12977847 1.00632342 11.18798347
Ag 7.16735118 3.16542410 9.20286067
Ag 5.14478477 5.04569775 1.14678823
Ag 5.06392711 7.14258324 3.04074577
Ag 7.17987173 5.08920938 3.18394319
Ag 7.16519058 7.16840586 1.02850547
Ag 5.10579814 5.08512784 4.99378059
Ag 5.03173434 7.22218440 7.09075128
Ag 7.22123621 5.13867884 7.18666366
Ag 7.10069205 7.11803951 5.08758963
Ag 5.17143407 5.15367300 9.15637906
Ag 5.12273688 7.17327038 11.31542548
Ag 7.09301187 5.08138402 11.26566534
Ag 7.10117903 7.18497458 9.26396195
Ag 5.06732716 9.13911054 1.02676148
Ag 5.08545461 11.28650279 3.05157147
Ag 7.06032799 9.20094382 3.07176825
Ag 7.11573366 11.19404795 1.03768621
Ag 5.09240316 9.18198914 5.10861741
Ag 5.13363692 11.24338122 7.20048492
Ag 7.14150460 9.18891817 7.21039314
Ag 7.10426657 11.27876634 5.08607434
Ag 5.11340642 9.16678569 9.21601774
Ag 5.14124623 11.27905368 11.12280844
Ag 7.11770283 9.18316876 11.22480557
Ag 7.14312925 11.24755919 9.25927567
Ag 9.18134822 0.90628466 1.03744375
Ag 9.22450721 3.01593034 2.99502883
Ag 11.35130658 0.98273195 3.07036676
Ag 11.24656638 3.01127718 0.89794431
Ag 9.29888917 1.00199003 5.07532519
Ag 9.24948301 3.03360899 7.20546769
Ag 11.14930298 1.04632710 7.17164417
Ag 11.28513180 3.00076156 5.26396507
Ag 9.19906966 0.98678994 9.26628530
Ag 9.20987130 3.06222765 11.19079081
Ag 11.28488283 0.97193075 11.28264228
Ag 11.14169894 3.12378393 9.28942052
Ag 9.18330153 5.04757321 1.00261968
Ag 9.25184052 7.16109816 3.16054696
Ag 11.22695173 5.04666043 3.09817660
Ag 11.16067504 7.14592596 0.99273902
Ag 9.27849417 5.16625130 5.21360361
Ag 9.24858237 7.26859022 7.21367427
Ag 11.27245880 5.14698207 7.23118112
Ag 11.39135121 7.06243684 5.17187271
Ag 9.18878835 5.24522326 9.18458569
Ag 9.15557878 7.15871164 11.24650832
Ag 11.32543771 5.18269940 11.17004551
Ag 11.24654606 7.23726538 9.19760283
Ag 9.15286278 9.17570525 1.03791936
Ag 9.19472743 11.18063135 3.05304384
Ag 11.26661129 9.13871351 3.11038193
Ag 11.21977691 11.16340208 1.01072375
Ag 9.14355559 9.19951081 5.09940490
Ag 9.21613393 11.27502116 7.10500690
Ag 11.21762949 9.25385153 7.11934118
Ag 11.25169717 11.22560947 5.06254953
Ag 9.19959890 9.29091471 9.17235793
Ag 9.15993698 11.21066735 11.23672259
Ag 11.21839367 9.18687973 11.16294893
Ag 11.22255101 11.36881888 9.25354785
108
Step=1200 Lattice="12.27 0 0  0 12.27 0  0 0 12.27" Properties=species:S:1:pos:R:3
Ag 1.01557219 0.95440435 1.04592476
Ag 0.98010905 3.03642033 3.05937144
Ag 3.04906087 1.00433246 3.19705657
Ag 3.07533572 3.00094133 0.96819048
Ag 0.98236036 1.03932107 5.12022058
Ag 1.04117704 3.04386066 7.27158994
Ag 3.09868403 1.05972906 7.17802276
Ag 2.93708362 2.99376844 5.16563315
Ag 0.92257328 1.10911785 9.23983925
Ag 1.03254337 3.06233018 11.24668513
Ag 3.04334931 1.08998476 11.07272112
Ag 3.12339864 3.03743407 9.18879093
Ag 1.02318965 5.14309122 1.08433320
Ag 0.92524924 7.09161349 3.03293693
Ag 3.10037310 5.14840177 3.04192808
Ag 3.11016000 7.19141587 1.08221629
Ag 1.08585957 5.02743562 5.17256704
Ag 1.05031579 7.21363917 7.22984471
Ag 3.11191227 5.16324904 7.15443842
Ag 3.07487921 7.15501797 5.00302422
Ag 1.07248740 5.15158643 9.28472925
Ag 1.02986381 7.17905000 11.26081577
Ag 3.22793950 5.11965632 11.28069925
Ag 3.11921284 7.17493176 9.15422665
Ag 1.01231168 9.15580156 1.03145704
Ag 1.08041927 11.14989814 3.07721263
Ag 3.12211297 9.21805660 2.97114827
Ag 3.00619035 11.33350694 0.93306810
Ag 1.01800612 9.21129900 5.10935992
Ag 0.88397721 11.24968721 7.16793960
Ag 3.10812642 9.30835335 7.15868895
Ag 3.15394137 11.24084820 5.16932231
Ag 0.96682647 9.25447552 9.16191878
Ag 0.98208017 11.24283795 11.21124159
Ag 3.03826929 9.18970948 11.17828336
Ag 3.00194968 11.39528677 9.05070204
Ag 5.09713980 0.99478254 0.98187665
Ag 5.03154036 2.98807860 3.14313208
Ag 7.12352087 0.95377174 3.05278847
Ag 7.15781821 3.04846108 1.04009676
Ag 5.18562101 1.05235585 5.04246660
Ag 5.18268643 3.12330193 7.05115821
Ag 7.26626833 1.00174587 7.22583081
Ag 7.29448497 3.00792692 5.12082078
Ag 5.13152147 1.14766475 9.09869397
Ag 5.23833465 3.05554671 11.21123744
Ag 7.12613301 1.00814829 11.18848192
Ag 7.17672059 3.16789984 9.20336191
Ag 5.14340249 5.03799379 1.15068146
Ag 5.06530291 7.14388741 3.04550039
Ag 7.18691549 5.08405516 3.19163735
Ag 7.16529224 7.16407076 1.03774842
Ag 5.09707435 5.07862634 5.00307574
Ag 5.01992226 7.22417256 7.08638026
Ag 7.22894508 5.15349326 7.19070141
Ag 7.11011547 7.11479609 5.08268473
Ag 5.17266513 5.15756226 9.15810716
Ag 5.11937548 7.17107309 11.30276025
Ag 7.08612676 5.09727374 11.26704436
Ag 7.08848438 7.17653579 9.27192019
Ag 5.05237185 9.13915351 1.02699669
Ag 5.07892816 11.30121016 3.05479245
Ag 7.06484134 9.20584278 3.06733437
Ag 7.11805869 11.19633467 1.04394426
Ag 5.09201026 9.17743539 5.10460695
Ag 5.13955084 11.26010317 7.19199756
Ag 7.13790760 9.18682320 7.19406707
Ag 7.10804470 11.26860116 5.08231257
Ag 5.10918776 9.17226041 9.20825285
Ag 5.15067859 11.27875354 11.11875517
Ag 7.11181605 9.18625712 11.23962671
Ag 7.13734156 11.23865246 9.25967856
Ag 9.17670772 0.90503463 1.03546114
Ag 9.23313525 3.00861050 2.99324022
Ag 11.35503841 0.99127130 3.06294601
Ag 11.24574809 3.01421414 0.89789537
Ag 9.29992550 0.99996667 5.06867805
Ag 9.23954267 3.02686992 7.20449725
Ag 11.13900671 1.04177463 7.18356314
Ag 11.27823962 3.01085292 5.26238283
Ag 9.20826657 0.99271866 9.27715535
Ag 9.19844007 3.06753858 11.20228871
Ag 11.27886180 0.97470992 11.29524880
Ag 11.13821247 3.13014599 9.28880013
Ag 9.18116456 5.05762441 1.00394039
Ag 9.25068999 7.15382126 3.15764368
Ag 11.23352892 5.04800932 3.08930492
Ag 11.17619966 7.15907742 0.98934122
Ag 9.28358953 5.16041744 5.21515035
Ag 9.25165981 7.27192377 7.21775032
Ag 11.28432160 5.16194096 7.23619517
Ag 11.39480265 7.05533915 5.17595578
Ag 9.17961199 5.24650741 9.18327856
Ag 9.14601105 7.15132224 11.26124160
Ag 11.32362051 5.18525436 11.17298525
Ag 11.24567271 7.23187239 9.20735465
Ag 9.13611250 9.17763300 1.03383904
Ag 9.20245138 11.18393227 3.04542271
Ag 11.26813055 9.13912017 3.11544971
Ag 11.21443808 11.14914572 1.01133322
Ag 9.14093881 9.19183925 5.10259052
Ag 9.21810129 11.27335851 7.10370243
Ag 11.21312263 9.24790467 7.12191410
Ag 11.24956516 11.22089841 5.04548647
Ag 9.19339959 9.29432801 9.16700915
Ag 9.15620115 11.21168176 11.24176304
Ag 11.21720378 9.17504458 11.15572833
Ag 11.22528720 11.36314972 9.25676139
108
Step=1300 Lattice="12.27 0 0  0 12.27 0  0 0 12.27" Properties=species:S:1:pos:R:3
Ag 1.01223504 0.93714402 1.02451507
Ag 0.98350113 3.03368802 3.06640909
Ag 3.04760923 1.01269326 3.19131451
Ag 3.08116272 2.98268165 0.95623627
Ag 0.96001403 1.04887770 5.11760021
Ag 1.02591711 3.05135064 7.27260202
Ag 3.09533159 1.06534044 7.16995373
Ag 2.93773765 2.98863934 5.18544294
Ag 0.91595655 1.11085044 9.24600117
Ag 1.03050921 3.06643072 11.23924072
Ag 3.03990632 1.10565836 11.06699268
Ag 3.12331580 3.04793117 9.19080133
Ag 1.02643281 5.12947978 1.07675201
Ag 0.92030793 7.08816793 3.02695875
Ag 3.10306061 5.13537200 3.03427970
Ag 3.11251680 7.19031740 1.08045144
Ag 1.09225298 5.02759567 5.17524984
Ag 1.05717465 7.21394855 7.23494630
Ag 3.10886732 5.15566098 7.15297820
Ag 3.06302885 7.14953441 5.01010147
Ag 1.08304892 5.14700318 9.29035021
Ag 1.04710692 7.16768966 11.26091771
Ag 3.23276603 5.11454470 11.28456752
Ag 3.12068596 7.17974258 9.14331132
Ag 1.02902860 9.15220258 1.03673216
Ag 1.06425346 11.16311640 3.07341826
Ag 3.11487144 9.21557468 2.96462228
Ag 3.00926073 11.33972005 0.93650207
Ag 1.02461773 9.20700897 5.11095881
Ag 0.89270599 11.24952098 7.17643922
Ag 3.10716488 9.31470439 7.15503098
Ag 3.15342230 11.24695496 5.16253352
Ag 0.96137876 9.25496991 9.15818798
Ag 0.99200654 11.24153855 11.21400036
Ag 3.03467224 9.19833298 11.17198137
Ag 3.01210633 11.39594667 9.06158299
Ag 5.09508826 0.99495794 0.98331740
Ag 5.02866541 2.97225436 3.12689844
Ag 7.12365201 0.95436032 3.04239012
Ag 7.16046798 3.04623206 1.05156820
Ag 5.18862657 1.05046709 5.04861079
Ag 5.20318917 3.12760592 7.04969101
Ag 7.27368432 1.00240027 7.23086380
Ag 7.31415234 3.00506458 5.12728581
Ag 5.13813098 1.15270291 9.09872576
Ag 5.23810433 3.05890485 11.21106286
Ag 7.12342515 1.01033385 11.19011943
Ag 7.18686417 3.16906852 9.20302122
Ag 5.14240888 5.03069101 1.15329716
Ag 5.06878073 7.14543303 3.05066681
Ag 7.19481149 5.07846253 3.19718512
Ag 7.16512980 7.15879896 1.04779374
Ag 5.08808932 5.07219257 5.01462208
Ag 5.00992345 7.22495498 7.08235494
Ag 7.23574751 5.16876451 7.19329643
Ag 7.12000349 7.11253823 5.07891956
Ag 5.17260741 5.16096628 9.15978642
Ag 5.11567996 7.16846445 11.28981735
Ag 7.08061577 5.11416655 11.26895050
Ag 7.07687055 7.16836471 9.27848594
Ag 5.03892378 9.14173159 1.02596233
Ag 5.07192447 11.31465268 3.05751600
Ag 7.07015171 9.21037956 3.06306252
Ag 7.11991696 11.19883511 1.04919560
Ag 5.09203895 9.17374553 5.10014201
Ag 5.14644059 11.27734357 7.18317110
Ag 7.13421137 9.18507009 7.17699570
Ag 7.11271220 11.25777935 5.07939933
Ag 5.10450940 9.17863278 9.20024936
Ag 5.15758855 11.27828624 11.11643537
Ag 7.10641229 9.18972187 11.25509129
Ag 7.13237222 11.22978904 9.25783570
Ag 9.17234656 0.90504776 1.03290754
Ag 9.24220274 3.00123030 2.99244843
Ag 11.35679046 0.99952873 3.05486277
Ag 11.24487324 3.01814191 0.89954269
Ag 9.29950412 0.99770874 5.06143053
Ag 9.22858901 3.02173835 7.20377412
Ag 11.13093162 1.03623396 7.19628681
Ag 11.27116817 3.02290370 5.25860712
Ag 9.21692371 0.99921994 9.28763188
Ag 9.18584057 3.07309121 11.21528367
Ag 11.27156864 0.97797960 11.30803810
Ag 11.13667254 3.13594122 9.28679109
Ag 9.17933008 5.06851123 1.00537782
Ag 9.24897275 7.14608887 3.15374232
Ag 11.23981273 5.04912885 3.08039033
Ag 11.19201011 7.17208007 0.98621679
Ag 9.28823452 5.15372525 5.21621368
Ag 9.25367730 7.27403204 7.22056442
Ag 11.29645686 5.17597424 7.24163528
Ag 11.39665779 7.04976771 5.17979901
Ag 9.17083129 5.24649964 9.18282732
Ag 9.13682104 7.14423981 11.27559843
Ag 11.32003265 5.18731869 11.17773880
Ag 11.24494472 7.22576158 9.21675442
Ag 9.12012264 9.17948450 1.02975146
Ag 9.21003535 11.18752220 3.03839720
Ag 11.26901281 9.13987520 3.11994856
Ag 11.20974233 11.13510625 1.01217576
Ag 9.13865360 9.18426836 5.10597146
Ag 9.21952862 11.27084464 7.10286123
Ag 11.20892875 9.24163800 7.12454889
Ag 11.24737738 11.21634765 5.02890961
Ag 9.18704965 9.29696731 9.16227661
Ag 9.15283167 11.21270667 11.24768497
Ag 11.21591365 9.16405442 11.15038551
Ag 11.22775364 11.35523981 9.25887398
108
Step=1400 Lattice="12.27 0 0  0 12.27 0  0 0 12.27" Properties=species:S:1:pos:R:3
Ag 1.00902440 0.92128373 1.00291716
Ag 0.98774292 3.03180669 3.07285390
Ag 3.04516867 1.02056461 3.18352684
Ag 3.08665060 2.96496982 0.94519810
Ag 0.93809682 1.05650361 5.11639732
Ag 1.00989828 3.05957544 7.27340012
Ag 3.09139703 1.07095277 7.16044198
Ag 2.94090512 2.98488170 5.20454321
Ag 0.90976052 1.11162998 9.25101019
Ag 1.02854114 3.07152830 11.23218203
Ag 3.03748787 1.11922756 11.06407653
Ag 3.12299362 3.06133604 9.19190158
Ag 1.02988700 5.11492248 1.06741041
Ag 0.91726960 7.08553384 3.02184730
Ag 3.10382011 5.12057425 3.02709471
Ag 3.11312230 7.18735272 1.07684891
Ag 1.09766324 5.02879713 5.17729538
Ag 1.06446572 7.21387392 7.23900397
Ag 3.10541734 5.14700909 7.15151170
Ag 3.04991522 7.14456304 5.01824677
Ag 1.09424928 5.14201068 9.29462702
Ag 1.06508009 7.15654377 11.26103135
Ag 3.23588411 5.10909972 11.28830095
Ag 3.12143022 7.18444967 9.13391829
Ag 1.04543104 9.14919926 1.04121716
Ag 1.04807251 11.17728909 3.06952909
Ag 3.10631785 9.21381830 2.96061748
Ag 3.01399211 11.34442110 0.94002224
Ag 1.03224955 9.20233370 5.11289748
Ag 0.90261453 11.25066295 7.18396172
Ag 3.10483294 9.31974572 7.15157742
Ag 3.15134299 11.25365498 5.15524813
Ag 0.95708770 9.25543163 9.15499338
Ag 1.00256690 11.23984297 11.21680692
Ag 3.03145055 9.20782696 11.16615102
Ag 3.02248820 11.39454924 9.07486566
Ag 5.09307145 0.99536735 0.98449088
Ag 5.02690496 2.95778774 3.10946037
Ag 7.12515120 0.95610379 3.03177174
Ag 7.16312463 3.04346104 1.06308081
Ag 5.19096488 1.04808473 5.05785771
Ag 5.22327081 3.13157571 7.04882249
Ag 7.27983887 1.00328055 7.23482908
Ag 7.33282417 3.00271504 5.13347239
Ag 5.14578933 1.15626125 9.09939194
Ag 5.23563055 3.06225265 11.21159242
Ag 7.12169023 1.01283279 11.19284021
Ag 7.19754701 3.16906181 9.20197909
Ag 5.14190980 5.02390385 1.15461637
Ag 5.07414056 7.14705438 3.05625415
Ag 7.20328768 5.07236161 3.20066434
Ag 7.16440882 7.15267302 1.05859455
Ag 5.07906679 5.06585356 5.02791128
Ag 5.00192157 7.22449881 7.07862348
Ag 7.24148449 5.18433171 7.19436984
Ag 7.13013796 7.11123776 5.07632993
Ag 5.17118538 5.16366771 9.16127560
Ag 5.11153771 7.16571075 11.27695011
Ag 7.07645578 5.13158475 11.27146393
Ag 7.06659354 7.16098205 9.28351046
Ag 5.02727608 9.14681852 1.02361616
Ag 5.06456742 11.32653779 3.05969594
Ag 7.07608120 9.21451056 3.05901242
Ag 7.12110871 11.20156636 1.05340307
Ag 5.09237483 9.17099374 5.09517213
Ag 5.15410537 11.29485761 7.17406752
Ag 7.13037559 9.18359006 7.15946723
Ag 7.11824317 11.24657542 5.07721956
Ag 5.09953883 9.18583522 9.19204300
Ag 5.16177082 11.27774227 11.11600662
Ag 7.10142509 9.19336230 11.27088577
Ag 7.12843290 11.22115289 9.25373737
Ag 9.16836524 0.90634385 1.02979592
Ag 9.25166217 2.99395750 2.99260009
Ag 11.35646213 1.00742141 3.04599035
Ag 11.24401092 3.02307345 0.90286096
Ag 9.29780932 0.99512270 5.05371458
Ag 9.21705437 3.01836240 7.20338559
Ag 11.12514784 1.02996424 7.20939428
Ag 11.26383143 3.03669408 5.25290735
Ag 9.22486371 1.00611103 9.29772704
Ag 9.17235726 3.07890562 11.22955917
Ag 11.26307727 0.98151647 11.32066905
Ag 11.13682929 3.14121323 9.28360285
Ag 9.17786524 5.08005218 1.00704308
Ag 9.24687535 7.13804595 3.14885360
Ag 11.24570834 5.04997974 3.07150489
Ag 11.20786271 7.18483325 0.98333620
Ag 9.29249587 5.14631460 5.21682651
Ag 9.25458250 7.27480143 7.22214553
Ag 11.30861368 5.18884608 7.24752990
Ag 11.39696413 7.04582816 5.18326031
Ag 9.16270218 5.24525804 9.18334859
Ag 9.12813163 7.13760740 11.28932627
Ag 11.31475016 5.18887307 11.18422343
Ag 11.24436417 7.21892659 9.22566661
Ag 9.10522414 9.18113734 1.02577185
Ag 9.21733449 11.19131520 3.03208229
Ag 11.26921306 9.14078732 3.12378143
Ag 11.20578368 11.12133439 1.01311342
Ag 9.13682974 9.17688913 5.10934641
Ag 9.22039265 11.26749253 7.10243506
Ag 11.20527698 9.23526017 7.12713606
Ag 11.24519576 11.21200222 5.01330781
Ag 9.18053122 9.29872726 9.15833415
Ag 9.14984488 11.21367458 11.25428353
Ag 11.21455417 9.15411351 11.14708249
Ag 11.22987603 11.34526033 9.26009997
108
Step=1500 Lattice="12.27 0 0  0 12.27 0  0 0 12.27" Properties=species:S:1:pos:R:3
Ag 1.00588889 0.90721999 0.98150054
Ag 0.99284903 3.03080898 3.07855239
Ag 3.04154971 1.02788176 3.17397453
Ag 3.09156868 2.94806754 0.93520259
Ag 0.91693185 1.06216257 5.11671244
Ag 0.99329208 3.06830980 7.27407409
Ag 3.08691829 1.07623820 7.15018070
Ag 2.94648013 2.98254073 5.22247708
Ag 0.90404077 1.11144272 9.25480949
Ag 1.02654038 3.07753867 11.22567118
Ag 3.03620433 1.13042980 11.06386619
Ag 3.12252371 3.07731966 9.19187419
Ag 1.03359453 5.09959781 1.05648627
Ag 0.91626055 7.08360193 3.01764629
Ag 3.10271034 5.10426819 3.02054613
Ag 3.11214274 7.18240597 1.07154449
Ag 1.10199802 5.03096863 5.17859146
Ag 1.07203151 7.21342659 7.24195852
Ag 3.10165497 5.13738453 7.15019622
Ag 3.03580575 7.14007533 5.02714224
Ag 1.10587688 5.13676075 9.29756847
Ag 1.08359732 7.14575832 11.26114350
Ag 3.23727860 5.10337234 11.29188823
Ag 3.12145757 7.18899862 9.12623272
Ag 1.06127136 9.14692722 1.04475222
Ag 1.03221252 11.19215149 3.06556172
Ag 3.09656068 9.21285296 2.95936489
Ag 3.02041487 11.34752837 0.94361092
Ag 1.04070305 9.19745749 5.11507868
Ag 0.91347580 11.25311050 7.19031225
Ag 3.10128521 9.32363341 7.14831864
Ag 3.14766266 11.26086854 5.14753999
Ag 0.95402323 9.25578812 9.15244194
Ag 1.01346548 11.23772747 11.21949836
Ag 3.02870895 9.21803290 11.16079447
Ag 3.03308312 11.39136540 9.09013856
Ag 5.09123921 0.99590201 0.98521366
Ag 5.02635792 2.94489201 3.09134117
Ag 7.12794430 0.95889717 3.02133747
Ag 7.16573947 3.04030536 1.07441934
Ag 5.19278687 1.04542722 5.06986750
Ag 5.24280115 3.13510906 7.04872210
Ag 7.28475183 1.00423455 7.23772694
Ag 7.35013695 3.00089237 5.13912847
Ag 5.15423010 1.15844887 9.10062859
Ag 5.23123720 3.06562281 11.21278796
Ag 7.12092759 1.01557868 11.19657006
Ag 7.20848334 3.16803108 9.20041221
Ag 5.14197899 5.01774430 1.15464060
Ag 5.08106467 7.14859017 3.06224149
Ag 7.21206603 5.06570849 3.20220541
Ag 7.16286566 7.14580387 1.07009058
Ag 5.07022978 5.05967849 5.04240180
Ag 4.99604049 7.22280282 7.07513712
Ag 7.24600746 5.20001256 7.19386880
Ag 7.14031551 7.11083292 5.07489918
Ag 5.16836338 5.16545859 9.16245582
Ag 5.10682546 7.16308604 11.26449619
Ag 7.07357924 5.14900306 11.27463321
Ag 7.05788455 7.15487938 9.28686532
Ag 5.01760790 9.15429217 1.01999466
Ag 5.05702005 11.33664637 3.06132503
Ag 7.08245999 9.21819818 3.05524962
Ag 7.12147271 11.20456839 1.05654770
Ag 5.09288299 9.16923610 5.08968692
Ag 5.16229699 11.31238793 7.16476365
Ag 7.12636627 9.18231708 7.14177470
Ag 7.12458213 11.23527769 5.07563072
Ag 5.09444344 9.19378336 9.18364726
Ag 5.16314574 11.27720985 11.11754937
Ag 7.09677220 9.19698075 11.28666484
Ag 7.12565306 11.21292964 9.24748101
Ag 9.16485473 0.90891755 1.02615993
Ag 9.26143215 2.98697985 2.99362999
Ag 11.35401763 1.01489134 3.03622848
Ag 11.24322551 3.02900535 0.90778575
Ag 9.29506028 0.99212214 5.04570321
Ag 9.20544107 3.01682188 7.20341333
Ag 11.12163698 1.02325300 7.22245114
Ag 11.25616703 3.05195336 5.24556412
Ag 9.23194555 1.01322290 9.30745220
Ag 9.15829393 3.08499564 11.24486630
Ag 11.25348617 0.98511517 11.33278994
Ag 11.13840683 3.14601554 9.27947985
Ag 9.17683239 5.09203433 1.00905380
Ag 9.24457713 7.12983598 3.14301048
Ag 11.25114055 5.05055221 3.06271385
Ag 11.22352792 7.19722856 0.98067993
Ag 9.29642955 5.13835971 5.21701580
Ag 9.25435570 7.27414366 7.22255535
Ag 11.32055356 5.20036610 7.25387449
Ag 11.39578366 7.04359451 5.18620123
Ag 9.15545868 5.24286099 9.18493371
Ag 9.12007124 7.13158063 11.30218344
Ag 11.30789871 5.18990130 11.19230790
Ag 11.24393718 7.21138869 9.23397557
Ag 9.09173396 9.18248449 1.02203197
Ag 9.22419447 11.19522950 3.02655128
Ag 11.26871923 9.14164853 3.12686703
Ag 11.20264344 11.10789335 1.01400802
Ag 9.13560886 9.16977705 5.11251810
Ag 9.22068245 11.26334095 7.10236854
Ag 11.20238285 9.22896202 7.12957625
Ag 11.24305900 11.20791153 4.99913960
Ag 9.17384357 9.29949794 9.15533075
Ag 9.14723220 11.21451873 11.26133294
Ag 11.21315698 9.14538365 11.14592428
Ag 11.23158472 11.33341916 9.26066238
108
Step=1600 Lattice="12.27 0 0  0 12.27 0  0 0 12.27" Properties=species:S:1:pos:R:3
Ag 1.00281118 0.89529221 0.96063799
Ag 0.99879475 3.03069750 3.08340118
Ag 3.03662280 1.03458043 3.16296163
Ag 3.09568920 2.93226245 0.92638369
Ag 0.89680409 1.06590514 5.11859334
Ag 0.97629808 3.07732355 7.27466255
Ag 3.08192960 1.08084057 7.13991127
Ag 2.95427395 2.98167228 5.23876603
Ag 0.89887086 1.11028958 9.25740670
Ag 1.02441778 3.08432418 11.21983814
Ag 3.03611660 1.13910234 11.06611216
Ag 3.12201421 3.09539689 9.19060166
Ag 1.03757903 5.08370606 1.04419947
Ag 0.91735830 7.08225110 3.01437186
Ag 3.09985372 5.08673505 3.01478016
Ag 3.10982965 7.17547473 1.06476339
Ag 1.10517309 5.03401403 5.17904385
Ag 1.07969951 7.21261716 7.24376957
Ag 3.09766924 5.12693834 7.14918055
Ag 3.02102483 7.13604182 5.03649211
Ag 1.11767913 5.13143988 9.29921130
Ag 1.10243522 7.13546087 11.26122343
Ag 3.23696033 5.09741348 11.29532451
Ag 3.12081073 7.19333938 9.12039422
Ag 1.07630224 9.14551884 1.04719122
Ag 1.01699055 11.20744423 3.06151427
Ag 3.08579967 9.21266824 2.96098088
Ag 3.02848993 11.34900037 0.94726016
Ag 1.04973788 9.19256707 5.11739679
Ag 0.92508463 11.25682652 7.19535666
Ag 3.09671666 9.32652773 7.14523589
Ag 3.14236816 11.26850531 5.13950285
Ag 0.95222554 9.25595747 9.15062513
Ag 1.02438969 11.23518640 11.22190343
Ag 3.02655531 9.22875429 11.15591119
Ag 3.04386546 11.38668498 9.10695305
Ag 5.08975268 0.99643710 0.98531746
Ag 5.02709936 2.93370970 3.07308222
Ag 7.13190215 0.96259360 3.01150079
Ag 7.16827305 3.03694611 1.08537394
Ag 5.19424048 1.04272851 5.08418215
Ag 5.26166335 3.13810154 7.04956615
Ag 7.28847886 1.00511951 7.23956218
Ag 7.36572943 2.99961063 5.14399849
Ag 5.16315229 1.15939898 9.10238558
Ag 5.22529251 3.06904253 11.21458275
Ag 7.12109815 1.01849578 11.20121135
Ag 7.21935792 3.16613709 9.19852372
Ag 5.14265146 5.01231942 1.15339561
Ag 5.08916716 7.14988914 3.06857701
Ag 7.22087694 5.05847859 3.20198006
Ag 7.16029167 7.13832297 1.08220027
Ag 5.06178656 5.05377244 5.05754259
Ag 4.99233900 7.21989809 7.07185355
Ag 7.24918710 5.21560377 7.19179366
Ag 7.15035100 7.11123204 5.07455648
Ag 5.16416957 5.16616150 9.16323452
Ag 5.10141513 7.16085524 11.25276152
Ag 7.07187955 5.16589708 11.27846885
Ag 7.05093347 7.15048672 9.28844499
Ag 5.00996632 9.16394212 1.01521696
Ag 5.04947295 11.34483855 3.06242198
Ag 7.08913116 9.22141163 3.05182545
Ag 7.12088612 11.20789865 1.05862978
Ag 5.09341410 9.16851061 5.08370848
Ag 5.17073526 11.32964900 7.15535854
Ag 7.12215814 9.18118897 7.12422348
Ag 7.13165507 11.22417935 5.07447254
Ag 5.08937361 9.20237309 9.17509041
Ag 5.16176757 11.27676438 11.12105937
Ag 7.09235893 9.20039334 11.30207151
Ag 7.12408809 11.20529459 9.23926867
Ag 9.16189163 0.91273570 1.02205602
Ag 9.27140075 2.98049564 2.99546352
Ag 11.34949530 1.02188728 3.02551822
Ag 11.24257374 3.03589467 0.91421007
Ag 9.29149486 0.98863343 5.03760678
Ag 9.19429540 3.01713548 7.20392540
Ag 11.12030025 1.01638743 7.23504277
Ag 11.24815617 3.06837112 5.23685337
Ag 9.23806309 1.02039015 9.31681019
Ag 9.14396346 3.09136866 11.26094546
Ag 11.24291744 0.98860393 11.34405836
Ag 11.14112164 3.15040589 9.27468692
Ag 9.17628833 5.10421642 1.01152733
Ag 9.24224932 7.12161103 3.13627493
Ag 11.25606425 5.05085934 3.05407966
Ag 11.23880281 7.20914795 0.97823501
Ag 9.30007248 5.13007157 5.21680098
Ag 9.25301503 7.27200592 7.22188498
Ag 11.33203817 5.21040243 7.26062565
Ag 11.39319072 7.04310394 5.18849586
Ag 9.14929808 5.23940556 9.18764063
Ag 9.11276865 7.12634467 11.31394484
Ag 11.29964254 5.19039362 11.20182283
Ag 11.24368387 7.20320624 9.24159337
Ag 9.07994207 9.18341847 1.01866706
Ag 9.23045988 11.19919201 3.02183353
Ag 11.26755181 9.14225047 3.12914826
Ag 11.20039039 11.09485973 1.01472679
Ag 9.13514031 9.16299124 5.11529540
Ag 9.22040619 11.25845265 7.10260437
Ag 11.20043448 9.22290637 7.13179203
Ag 11.24098703 11.20412644 4.98682473
Ag 9.16700198 9.29916357 9.15338626
Ag 9.14498012 11.21518356 11.26859769
Ag 11.21175534 9.13799143 11.14694738
Ag 11.23282465 11.31994319 9.26076803
108
Step=1700 Lattice="12.27 0 0  0 12.27 0  0 0 12.27" Properties=species:S:1:pos:R:3
Ag 0.99981251 0.88577294 0.94069414
Ag 1.00550429 3.03143665 3.08734537
Ag 3.03032760 1.04061030 3.15080001
Ag 3.09879581 2.91786018 0.91888252
Ag 0.87794573 1.06786029 5.12202730
Ag 0.95914572 3.08636863 7.27515110
Ag 3.07646764 1.08441481 7.13037171
Ag 2.96403365 2.98233688 5.25293355
Ag 0.89433989 1.10818843 9.25887070
Ag 1.02210983 3.09168846 11.21477109
Ag 3.03722900 1.14517633 11.07044129
Ag 3.12158167 3.11495328 9.18806890
Ag 1.04184390 5.06747657 1.03080696
Ag 0.92058862 7.08135569 3.01201449
Ag 3.09542684 5.06827200 3.00991795
Ag 3.10650528 7.16666480 1.05680723
Ag 1.10711191 5.03780880 5.17858170
Ag 1.08728648 7.21144970 7.24442016
Ag 3.09354100 5.11586307 7.14859237
Ag 3.00594613 7.13242467 5.04602338
Ag 1.12937799 5.12626808 9.29961369
Ag 1.12133483 7.12576332 11.26122306
Ag 3.23496959 5.09127338 11.29860816
Ag 3.11956383 7.19742795 9.11648883
Ag 1.09029583 9.14508960 1.04840681
Ag 1.00269666 11.22291321 3.05737069
Ag 3.07429744 9.21319024 2.96546267
Ag 3.03809604 11.34884389 0.95096554
Ag 1.05907584 9.18785678 5.11974239
Ag 0.93725503 11.26174396 7.19902296
Ag 3.09135356 9.32858263 7.14230688
Ag 3.13547308 11.27647137 5.13124377
Ag 0.95170721 9.25585348 9.14961236
Ag 1.03503163 11.23222119 11.22385457
Ag 3.02509902 9.23975055 11.15151195
Ag 3.05479929 11.38079915 9.12484498
Ag 5.08877613 0.99684124 0.98465731
Ag 5.02916958 2.92432126 3.05522277
Ag 7.13685938 0.96700978 3.00266406
Ag 7.17068574 3.03357344 1.09572962
Ag 5.19546284 1.04022635 5.10025378
Ag 5.27975095 3.14045153 7.05152788
Ag 7.29111503 1.00581320 7.24034294
Ag 7.37925635 2.99887956 5.14783935
Ag 5.17224909 1.15925621 9.10463047
Ag 5.21818732 3.07252187 11.21687844
Ag 7.12212428 1.02150084 11.20665758
Ag 7.22984165 3.16354106 9.19653463
Ag 5.14391933 5.00772820 1.15093398
Ag 5.09803442 7.15081360 3.07517848
Ag 7.22946960 5.05067681 3.20019066
Ag 7.15653672 7.13039698 1.09481312
Ag 5.05392665 5.04826658 5.07279389
Ag 4.99080839 7.21584593 7.06874053
Ag 7.25091391 5.23088091 7.18821019
Ag 7.16007976 7.11232004 5.07517742
Ag 5.15871031 5.16566699 9.16354140
Ag 5.09519962 7.15925741 11.24200544
Ag 7.07121701 5.18175833 11.28293620
Ag 7.04587189 7.14813003 9.28817087
Ag 5.00427440 9.17548019 1.00947347
Ag 5.04213329 11.35105321 3.06303285
Ag 7.09595201 9.22412793 3.04878155
Ag 7.11927141 11.21160752 1.05967858
Ag 5.09381176 9.16883778 5.07728912
Ag 5.17912304 11.34631850 7.14597094
Ag 7.11773694 9.18014836 7.10713100
Ag 7.13937296 11.21357014 5.07357635
Ag 5.08447475 9.21148739 9.16641604
Ag 5.15781834 11.27648403 11.12645031
Ag 7.08808617 9.20343683 11.31674643
Ag 7.12371362 11.19840928 9.22939300
Ag 9.15952441 0.91773613 1.01756473
Ag 9.28142300 2.97470816 2.99801895
Ag 11.34301303 1.02836151 3.01385310
Ag 11.24210274 3.04366174 0.92198258
Ag 9.28735420 0.98460937 5.02965616
Ag 9.18417077 3.01926942 7.20498835
Ag 11.12096935 1.00963057 7.24679628
Ag 11.23983950 3.08559436 5.22703734
Ag 9.24313284 1.02746403 9.32578803
Ag 9.12968149 3.09802592 11.27753550
Ag 11.23151255 0.99185758 11.35415889
Ag 11.14469612 3.15444014 9.26949842
Ag 9.17628280 5.11633729 1.01457277
Ag 9.24005054 7.11351846 3.12874667
Ag 11.26046689 5.05095662 3.04565209
Ag 11.25351352 7.22046273 0.97599811
Ag 9.30343407 5.12169907 5.21619333
Ag 9.25062026 7.26837945 7.22024737
Ag 11.34282994 5.21887483 7.26769683
Ag 11.38927039 7.04435317 5.19003859
Ag 9.14436859 5.23500583 9.19149292
Ag 9.10634664 7.12209829 11.32440828
Ag 11.29016706 5.19035702 11.21257127
Ag 11.24362027 7.19448094 9.24847436
Ag 9.07010117 9.18384229 1.01580859
Ag 9.23598808 11.20314469 3.01791472
Ag 11.26576160 9.14239919 3.13057783
Ag 11.19907793 11.08232407 1.01514830
Ag 9.13557508 9.15658927 5.11750064
Ag 9.21959569 11.25291070 7.10308834
Ag 11.19958159 9.21722014 7.13373100
Ag 11.23898680 11.20069399 4.97674188
Ag 9.16003480 9.29760368 9.15258854
Ag 9.14307491 11.21562529 11.27584349
Ag 11.21038484 9.13202021 11.15010431
Ag 11.23354157 11.30507329 9.26060952
108
Step=1800 Lattice="12.27 0 0  0 12.27 0  0 0 12.27" Properties=species:S:1:pos:R:3
Ag 0.99694148 0.87886116 0.92201216
Ag 1.01283768 3.03294918 3.09037441
Ag 3.02267868 1.04593919 3.13779630
Ag 3.10069477 2.90517127 0.91283957
Ag 0.86053018 1.06822374 5.12693666
Ag 0.94209411 3.09519668 7.27547532
Ag 3.07057309 1.08665401 7.12224580
Ag 2.97546352 2.98457975 5.26453701
Ag 0.89054763 1.10517504 9.25932348
Ag 1.01957341 3.09937594 11.21050897
Ag 3.03949943 1.14866212 11.07639166
Ag 3.12134375 3.13526100 9.18435922
Ag 1.04637948 5.05115884 1.01659857
Ag 0.92592461 7.08079269 3.01055021
Ag 3.08965239 5.04917057 3.00604231
Ag 3.10253553 7.15616909 1.04803694
Ag 1.10774549 5.04220511 5.17716223
Ag 1.09460317 7.20993870 7.24392126
Ag 3.08933920 5.10440226 7.14852432
Ag 2.99098067 7.12917820 5.05548926
Ag 1.14066114 5.12148702 9.29885012
Ag 1.14000447 7.11675812 11.26107831
Ag 3.23137943 5.08501227 11.30173636
Ag 3.11782016 7.20122772 9.11454285
Ag 1.10305707 9.14572956 1.04829774
Ag 0.98957032 11.23833032 3.05310712
Ag 3.06237346 9.21429994 2.97271018
Ag 3.04902074 11.34711756 0.95472122
Ag 1.06840613 9.18353571 5.12200730
Ag 0.94981586 11.26777696 7.20129934
Ag 3.08544396 9.32993820 7.13951225
Ag 3.12701760 11.28466796 5.12287624
Ag 0.95245932 9.25538716 9.14943621
Ag 1.04509639 11.22883550 11.22520169
Ag 3.02445583 9.25075543 11.14762499
Ag 3.06581797 11.37399145 9.14333244
Ag 5.08846686 0.99699801 0.98312063
Ag 5.03256508 2.91675455 3.03826764
Ag 7.14265177 0.97193408 2.99520030
Ag 7.17294542 3.03037188 1.10528000
Ag 5.19657409 1.03815473 5.11746297
Ag 5.29696410 3.14206699 7.05476937
Ag 7.29279701 1.00622482 7.24008051
Ag 7.39040613 2.99869962 5.15041191
Ag 5.18122743 1.15816500 9.10734896
Ag 5.21031498 3.07604574 11.21956768
Ag 7.12389596 1.02449746 11.21279450
Ag 7.23960772 3.16039757 9.19468222
Ag 5.14573076 5.00405771 1.14733599
Ag 5.10724212 7.15124317 3.08195391
Ag 7.23761839 5.04234965 3.19706034
Ag 7.15150985 7.12220854 1.10779717
Ag 5.04682019 5.04330577 5.08764578
Ag 4.99137336 7.21072843 7.06577889
Ag 7.25112099 5.24559839 7.18324072
Ag 7.16935874 7.11396727 5.07658701
Ag 5.15216643 5.16394240 9.16334129
Ag 5.08811529 7.15849000 11.23242870
Ag 7.07142543 5.19613086 11.28797525
Ag 7.04275940 7.14804517 9.28601197
Ag 5.00035609 9.18856204 1.00302238
Ag 5.03521283 11.35530253 3.06323264
Ag 7.10279443 9.22633280 3.04614979
Ag 7.11660201 11.21573599 1.05975108
Ag 5.09392049 9.17022166 5.07050753
Ag 5.18715976 11.36204806 7.13674102
Ag 7.11310172 9.17914381 7.09080652
Ag 7.14764220 11.20372819 5.07277031
Ag 5.07988218 9.22100250 9.15766928
Ag 5.15159106 11.27644221 11.13356513
Ag 7.08385672 9.20597297 11.33033880
Ag 7.12443826 11.19241877 9.21821431
Ag 9.15778221 0.92382789 1.01279103
Ag 9.29131870 2.96982172 3.00120973
Ag 11.33476787 1.03426572 3.00128497
Ag 11.24184884 3.05219222 0.93090799
Ag 9.28286949 0.98001759 5.02208901
Ag 9.17559114 3.02314991 7.20665019
Ag 11.12341837 1.00320450 7.25739601
Ag 11.23132686 3.10323057 5.21635905
Ag 9.24710044 1.03430242 9.33435096
Ag 9.11575069 3.10496266 11.29438117
Ag 11.21943450 0.99481295 11.36281981
Ag 11.14886776 3.15816642 9.26419116
Ag 9.17685559 5.12813233 1.01828190
Ag 9.23812112 7.10571343 3.12055550
Ag 11.26436865 5.05093623 3.03747231
Ag 11.26751538 7.23103357 0.97397908
Ag 9.30648854 5.11352792 5.21519633
Ag 9.24727470 7.26330536 7.21776783
Ag 11.35269804 5.22575260 7.27495689
Ag 11.38411762 7.04729706 5.19074413
Ag 9.14076104 5.22979075 9.19647466
Ag 9.10091468 7.11903648 11.33340650
Ag 11.27967028 5.18979863 11.22433833
Ag 11.24376366 7.18535919 9.25461986
Ag 9.06241615 9.18367309 1.01358456
Ag 9.24064049 11.20702516 3.01473399
Ag 11.26342605 9.14192859 3.13112717
Ag 11.19874156 11.07039139 1.01516842
Ag 9.13706101 9.15061527 5.11897718
Ag 9.21829283 11.24681312 7.10377362
Ag 11.19992831 9.21197334 7.13536603
Ag 11.23705842 11.19765069 4.96920663
Ag 9.15299103 9.29469700 9.15299816
Ag 9.14149358 11.21580489 11.28284737
Ag 11.20908368 9.12750395 11.15527141
Ag 11.23368735 11.28908059 9.26034850
108
Step=1900 Lattice="12.27 0 0  0 12.27 0  0 0 12.27" Properties=species:S:1:pos:R:3
Ag 0.99427911 0.87467906 0.90489771
Ag 1.02059698 3.03511729 3.09251570
Ag 3.01375995 1.05053444 3.12424171
Ag 3.10122819 2.89449314 0.90838421
Ag 0.84467431 1.06724370 5.13317930
Ag 0.92542926 3.10354946 7.27552799
Ag 3.06428024 1.08731858 7.11611505
Ag 2.98824608 2.98839953 5.27320497
Ag 0.88759773 1.10130242 9.25892846
Ag 1.01678564 3.10708002 11.20703630
Ag 3.04284566 1.14963162 11.08345691
Ag 3.12141229 3.15551335 9.17963704
Ag 1.05116426 5.03503289 1.00188901
Ag 0.93328794 7.08044816 3.00993206
Ag 3.08279223 5.02973046 3.00319641
Ag 3.09829192 7.14426103 1.03885431
Ag 1.10701247 5.04703868 5.17477390
Ag 1.10145956 7.20810039 7.24231534
Ag 3.08511841 5.09285732 7.14902453
Ag 2.97656234 7.12624946 5.06467747
Ag 1.15119505 5.11735972 9.29700798
Ag 1.15812390 7.10853263 11.26071196
Ag 3.22629809 5.07868940 11.30469989
Ag 3.11570705 7.20471046 9.11451852
Ag 1.11443720 9.14749573 1.04679795
Ag 0.97780649 11.25346467 3.04869966
Ag 3.05036683 9.21585353 2.98253102
Ag 3.06096101 11.34393093 0.95851712
Ag 1.07739235 9.17981319 5.12408996
Ag 0.96260569 11.27479565 7.20223023
Ag 3.07924613 9.33071607 7.13684827
Ag 3.11706900 11.29300296 5.11451373
Ag 0.95445764 9.25446864 9.15009919
Ag 1.05430790 11.22505569 11.22582609
Ag 3.02473639 9.26147872 11.14429257
Ag 3.07682950 11.36653534 9.16193051
Ag 5.08897109 0.99680878 0.98063680
Ag 5.03723324 2.91099285 3.02268510
Ag 7.14910056 0.97714463 2.98943730
Ag 7.17502614 3.02752928 1.11384036
Ag 5.19767559 1.03674025 5.13515006
Ag 5.31320518 3.14287336 7.05942999
Ag 7.29370256 1.00630383 7.23878266
Ag 7.39892102 2.99905725 5.15151356
Ag 5.18982226 1.15626000 9.11054254
Ag 5.20205404 3.07958840 11.22252742
Ag 7.12627925 1.02739865 11.21950421
Ag 7.24834771 3.15684976 9.19319490
Ag 5.14799940 5.00137889 1.14270859
Ag 5.11637480 7.15107659 3.08881486
Ag 7.24512680 5.03357345 3.19282388
Ag 7.14518336 7.11396147 1.12097961
Ag 5.04061955 5.03903520 5.10164536
Ag 4.99389658 7.20466462 7.06296441
Ag 7.24978205 5.25949003 7.17706226
Ag 7.17806681 7.11604464 5.07856516
Ag 5.14478000 5.16104186 9.16263740
Ag 5.08015731 7.15868817 11.22416385
Ag 7.07232019 5.20864076 11.29348224
Ag 7.04157667 7.15035348 9.28199657
Ag 4.99797042 9.20278686 0.99617028
Ag 5.02891640 11.35766308 3.06312137
Ag 7.10954462 9.22802124 3.04395061
Ag 7.11290557 11.22031124 1.05892909
Ag 5.09359412 9.17265093 5.06346441
Ag 5.19455324 11.37646551 7.12782539
Ag 7.10826713 9.17813135 7.07554254
Ag 7.15635634 11.19491182 5.07188499
Ag 5.07571798 9.23077447 9.14889699
Ag 5.14346652 11.27670291 11.14219222
Ag 7.07958273 9.20789102 11.34251899
Ag 7.12612420 11.18744856 9.20613284
Ag 9.15668038 0.93089324 1.00786304
Ag 9.30087273 2.96603712 3.00494643
Ag 11.32502593 1.03954257 2.98792359
Ag 11.24183712 3.06134468 0.94075026
Ag 9.27825205 0.97484937 5.01514005
Ag 9.16901378 3.02867220 7.20892642
Ag 11.12737556 0.99728098 7.26659311
Ag 11.22279961 3.12084655 5.20503808
Ag 9.24993798 1.04077779 9.34243879
Ag 9.10245574 3.11216800 11.31123963
Ag 11.20686311 0.99744110 11.36982845
Ag 11.15339472 3.16162432 9.25903982
Ag 9.17803264 5.13934573 1.02271951
Ag 9.23658768 7.09834271 3.11185339
Ag 11.26782071 5.05092367 3.02958693
Ag 11.28069269 7.24071144 0.97220326
Ag 9.30916913 5.10587660 5.21380668
Ag 9.24312422 7.25687650 7.21459426
Ag 11.36141946 5.23105964 7.28223215
Ag 11.37783681 7.05184962 5.19055397
Ag 9.13850541 5.22390195 9.20252024
Ag 9.09656117 7.11735299 11.34080993
Ag 11.26835769 5.18873172 11.23689912
Ag 11.24413333 7.17602802 9.26008374
Ag 9.05703394 9.18283791 1.01211224
Ag 9.24430055 11.21077182 3.01219327
Ag 11.26064466 9.14071353 3.13079043
Ag 11.19939683 11.05918153 1.01470584
Ag 9.13973739 9.14509854 5.11959681
Ag 9.21656048 11.24026599 7.10462417
Ag 11.20153031 9.20720798 7.13669400
Ag 11.23520093 11.19501543 4.96445737
Ag 9.14593712 9.29032348 9.15464502
Ag 9.14020431 11.21568669 11.28940672
Ag 11.20789273 9.12442876 11.16225370
Ag 11.23322486 11.27225030 9.26010771
108
Step=2000 Lattice="12.27 0 0  0 12.27 0  0 0 12.27" Properties=species:S:1:pos:R:3
Ag 0.99192105 0.87327211 0.88960228
Ag 1.02852787 3.03778725 3.09382682
Ag 3.00372917 1.05436867 3.11039865
Ag 3.10028807 2.88608825 0.90563526
Ag 0.83044752 1.06520518 5.14055415
Ag 0.90945835 3.11116675 7.27517011
Ag 3.05761955 1.08628079 7.11241530
Ag 3.00205966 2.99371424 5.27867323
Ag 0.88559014 1.09663891 9.25788326
Ag 1.01374136 3.11445588 11.20428062
Ag 3.04715378 1.14820398 11.09113304
Ag 3.12188542 3.17484783 9.17411724
Ag 1.05616518 5.01939865 0.98701418
Ag 0.94255222 7.08022269 3.01008993
Ag 3.07514131 5.01025280 3.00138601
Ag 3.09414041 7.13126124 1.02968419
Ag 1.10485286 5.05213667 5.17143767
Ag 1.10767023 7.20595159 7.23967826
Ag 3.08091798 5.08156887 7.15008482
Ag 2.96315141 7.12357921 5.07340989
Ag 1.16063773 5.11416144 9.29418584
Ag 1.17535022 7.10117666 11.26003772
Ag 3.21987026 5.07235916 11.30747736
Ag 3.11336835 7.20785659 9.11630460
Ag 1.12434479 9.15040605 1.04388552
Ag 0.96754801 11.26810080 3.04413218
Ag 3.03860633 9.21770111 2.99466272
Ag 3.07353823 11.33944012 0.96233875
Ag 1.08568159 9.17689022 5.12590196
Ag 0.97546862 11.28262836 7.20191051
Ag 3.07301181 9.33101753 7.13431115
Ag 3.10572111 11.30139911 5.10626447
Ag 0.95765039 9.25302607 9.15157469
Ag 1.06241391 11.22093928 11.22565261
Ag 3.02603474 9.27160640 11.14157198
Ag 3.08771913 11.35869519 9.18015497
Ag 5.09039225 0.99620919 0.97718923
Ag 5.04307173 2.90698145 3.00889051
Ag 7.15601489 0.98241675 2.98564433
Ag 7.17690595 3.02522152 1.12124489
Ag 5.19884851 1.03620026 5.15264367
Ag 5.32837435 3.14282138 7.06559884
Ag 7.29404611 1.00604496 7.23646341
Ag 7.40461631 2.99992162 5.15102327
Ag 5.19780578 1.15365896 9.11422379
Ag 5.19375392 3.08310593 11.22563836
Ag 7.12912727 1.03011814 11.22665066
Ag 7.25578733 3.15302647 9.19228838
Ag 5.15059522 4.99974210 1.13718275
Ag 5.12503960 7.15023243 3.09568776
Ag 7.25183663 5.02445068 3.18771950
Ag 7.13759440 7.10586804 1.13415428
Ag 5.03546204 5.03558734 5.11440031
Ag 4.99818628 7.19780059 7.06030801
Ag 7.24690837 5.27227133 7.16990008
Ag 7.18610444 7.11843281 5.08085452
Ag 5.13685405 5.15710748 9.16147889
Ag 5.07138317 7.15993344 11.21726862
Ag 7.07370856 5.21901565 11.29930727
Ag 7.04222713 7.15505620 9.27621807
Ag 4.99684763 9.21771850 0.98925398
Ag 5.02343196 11.35826485 3.06281987
Ag 7.11610695 9.22919745 3.04219210
Ag 7.10827229 11.22534032 1.05731516
Ag 5.09270382 9.17609985 5.05627806
Ag 5.20102985 11.38918081 7.11941175
Ag 7.10326434 9.17707663 7.06160461
Ag 7.16539352 11.18735116 5.07077671
Ag 5.07209201 9.24065026 9.14014822
Ag 5.13388867 11.27731925 11.15208181
Ag 7.07521080 9.20910899 11.35299213
Ag 7.12860957 11.18360145 9.19356072
Ag 9.15620494 0.93879105 1.00292938
Ag 9.30983856 2.96354565 3.00913872
Ag 11.31410646 1.04411853 2.97393081
Ag 11.24208167 3.07093676 0.95123868
Ag 9.27368706 0.96912982 5.00903293
Ag 9.16479630 3.03569265 7.21178822
Ag 11.13253485 0.99197883 7.27420978
Ag 11.21450518 3.13797618 5.19329037
Ag 9.25164018 1.04678756 9.34996461
Ag 9.09006112 3.11962406 11.32786018
Ag 11.19401668 0.99974604 11.37502041
Ag 11.15805941 3.16484096 9.25431353
Ag 9.17982119 5.14974315 1.02791389
Ag 9.23554500 7.09155137 3.10281586
Ag 11.27090159 5.05107448 3.02204301
Ag 11.29296893 7.24933967 0.97071177
Ag 9.31136597 5.09908793 5.21201615
Ag 9.23835319 7.24923505 7.21088253
Ag 11.36878067 5.23487048 7.28931240
Ag 11.37054195 7.05788732 5.18944538
Ag 9.13757245 5.21749102 9.20952775
Ag 9.09334613 7.11721571 11.34652303
Ag 11.25643732 5.18717896 11.25002483
Ag 11.24474903 7.16669916 9.26496215
Ag 9.05403511 9.18129340 1.01148993
Ag 9.24688571 11.21432336 3.01017633
Ag 11.25753390 9.13868060 3.12958551
Ag 11.20103800 11.04882934 1.01370690
Ag 9.14370790 9.14006878 5.11926626
Ag 9.21448572 11.23337594 7.10561694
Ag 11.20439592 9.20294045 7.13773367
Ag 11.23341706 11.19278388 4.96264333
Ag 9.13895895 9.28437292 9.15751858
Ag 9.13916694 11.21523735 11.29534671
Ag 11.20685521 9.12273761 11.17079429
Ag 11.23212937 11.25487408 9.25996868
108
Step=2100 Lattice="12.27 0 0  0 12.27 0  0 0 12.27" Properties=species:S:1:pos:R:3
Ag 0.98994885 0.87461210 0.87630866
Ag 1.03632416 3.04077622 3.09438721
Ag 2.99281671 1.05741870 3.09650298
Ag 3.09782904 2.88016119 0.90467577
Ag 0.81788456 1.06241395 5.14881036
Ag 0.89450062 3.11779758 7.27424461
Ag 3.05062552 1.08355209 7.11141550
Ag 3.01659044 3.00033622 5.28081101
Ag 0.88461343 1.09126532 9.25639969
Ag 1.01044935 3.12113947 11.20211316
Ag 3.05228743 1.14453788 11.09896156
Ag 3.12283750 3.19238920 9.16805833
Ag 1.06133672 5.00457251 0.97234126
Ag 0.95354833 7.08003532 3.01093163
Ag 3.06702213 4.99104258 3.00058437
Ag 3.09041891 7.11750661 1.02095767
Ag 1.10122934 5.05732673 5.16719802
Ag 1.11306221 7.20351035 7.23611880
Ag 3.07676311 5.07090420 7.15161881
Ag 2.95120935 7.12110421 5.08154159
Ag 1.16865240 5.11215580 9.29049261
Ag 1.19132618 7.09477978 11.25895912
Ag 3.21227658 5.06606760 11.31003718
Ag 3.11095570 7.21065460 9.11973456
Ag 1.13275208 9.15443562 1.03958982
Ag 0.95887383 11.28204141 3.03939547
Ag 3.02738735 9.21970115 3.00877127
Ag 3.08631279 11.33384142 0.96616977
Ag 1.09291596 9.17495067 5.12738209
Ag 0.98825728 11.29106837 7.20047839
Ag 3.06699496 9.33092351 7.13190237
Ag 3.09308738 11.30979757 5.09822785
Ag 0.96196926 9.25099748 9.15380978
Ag 1.06919110 11.21658027 11.22465769
Ag 3.02842902 9.28080924 11.13953491
Ag 3.09835501 11.35072772 9.19753266
Ag 5.09278182 0.99519654 0.97281822
Ag 5.04993290 2.90463319 2.99723646
Ag 7.16321071 0.98753385 2.98402102
Ag 7.17856375 3.02359981 1.12734723
Ag 5.20013479 1.03673897 5.16928673
Ag 5.34236516 3.14189362 7.07331114
Ag 7.29406938 1.00548761 7.23315127
Ag 7.40739482 3.00124392 5.14890362
Ag 5.20499234 1.15045811 9.11841020
Ag 5.18572356 3.08653208 11.22878928
Ag 7.13229865 1.03257766 11.23408910
Ag 7.26170116 3.14904125 9.19215860
Ag 5.15334676 4.99917305 1.13090964
Ag 5.13288323 7.14864975 3.10252191
Ag 7.25760946 5.01510820 3.18198149
Ag 7.12884398 7.09813783 1.14708449
Ag 5.03147254 5.03307043 5.12557504
Ag 5.00400601 7.19030399 7.05783438
Ag 7.24254421 5.28364420 7.16201553
Ag 7.19339298 7.12101639 5.08317563
Ag 5.12873780 5.15236118 9.15994258
Ag 5.06190680 7.16224879 11.21174253
Ag 7.07540187 5.22709515 11.30526707
Ag 7.04454698 7.16204334 9.26883310
Ag 4.99672152 9.23290658 0.98262366
Ag 5.01892292 11.35727951 3.06247210
Ag 7.12240241 9.22987435 3.04087002
Ag 7.10284498 11.23080507 1.05502759
Ag 5.09114560 9.18052906 5.04908020
Ag 5.20634314 11.39979896 7.11170444
Ag 7.09813470 9.17595679 7.04922039
Ag 7.17462359 11.18123967 5.06932633
Ag 5.06909481 9.25047068 9.13147307
Ag 5.12334186 11.27833212 11.16295918
Ag 7.07072153 9.20957425 11.36151140
Ag 7.13172874 11.18095427 9.18089103
Ag 9.15630554 0.94736135 0.99815437
Ag 9.31794605 2.96252159 3.01369706
Ag 11.30237945 1.04790035 2.95951075
Ag 11.24258624 3.08075488 0.96207672
Ag 9.26933106 0.96293501 5.00397318
Ag 9.16317226 3.04404464 7.21515533
Ag 11.13856730 0.98736683 7.28013947
Ag 11.20674327 3.15413878 5.18131686
Ag 9.25221978 1.05224812 9.35681626
Ag 9.07881040 3.12730459 11.34399829
Ag 11.18114984 1.00176213 11.37828965
Ag 11.16267146 3.16781421 9.25027183
Ag 9.18220476 5.15912350 1.03385049
Ag 9.23505539 7.08548465 3.09364724
Ag 11.27371212 5.05156893 3.01489134
Ag 11.30430683 7.25675721 0.96955947
Ag 9.31292966 5.09351503 5.20980764
Ag 9.23317699 7.24056610 7.20678978
Ag 11.37458023 5.23730296 7.29596049
Ag 11.36235681 7.06525438 5.18742170
Ag 9.13787949 5.21071644 9.21736728
Ag 9.09129518 7.11874867 11.35050153
Ag 11.24411955 5.18517262 11.26348703
Ag 11.24562950 7.15760307 9.26938183
Ag 9.05342856 9.17902363 1.01178911
Ag 9.24836260 11.21761711 3.00854944
Ag 11.25421386 9.13581530 3.12754513
Ag 11.20363732 11.03948435 1.01214914
Ag 9.14903878 9.13554813 5.11793217
Ag 9.21215392 11.22624289 7.10674292
Ag 11.20849341 9.19915785 7.13852274
Ag 11.23171660 11.19092533 4.96381683
Ag 9.13215059 9.27676976 9.16157883
Ag 9.13833389 11.21442555 11.30052583
Ag 11.20602979 9.12233700 11.18058719
Ag 11.23038938 11.23724217 9.25997291
108
Step=2200 Lattice="12.27 0 0  0 12.27 0  0 0 12.27" Properties=species:S:1:pos:R:3
Ag 0.98843336 0.87860283 0.86512169
Ag 1.04363543 3.04388824 3.09429033
Ag 2.98130777 1.05966401 3.08277095
Ag 3.09387775 2.87683845 0.90553511
Ag 0.80699925 1.05918156 5.15765837
Ag 0.88087516 3.12321899 7.27259217
Ag 3.04334795 1.07928895 7.11321528
Ag 3.03153914 3.00796666 5.27963007
Ag 0.88473783 1.08527160 9.25468232
Ag 1.00692829 3.12677190 11.20035372
Ag 3.05809603 1.13883032 11.10656435
Ag 3.12430685 3.20729245 9.16174818
Ag 1.06661878 4.99088309 0.95825381
Ag 0.96607128 7.07982601 3.01234542
Ag 3.05877882 4.97241309 3.00073884
Ag 3.08741839 7.10333919 1.01309355
Ag 1.09612778 5.06245438 5.16213285
Ag 1.11748694 7.20079698 7.23177481
Ag 3.07266759 5.06124051 7.15347215
Ag 2.94117799 7.11876101 5.08896668
Ag 1.17492550 5.11157424 9.28604658
Ag 1.20569147 7.08943266 11.25739607
Ag 3.20373082 5.05984974 11.31231922
Ag 3.10861978 7.21309968 9.12458854
Ag 1.13969483 9.15951566 1.03399471
Ag 0.95181661 11.29510690 3.03450034
Ag 3.01695716 9.22173008 3.02447186
Ag 3.09880205 11.32736439 0.96999650
Ag 1.09874664 9.17414215 5.12848500
Ag 1.00081171 11.29987454 7.19810761
Ag 3.06143436 9.33049139 7.12962955
Ag 3.07931818 11.31815949 5.09049243
Ag 0.96733784 9.24831806 9.15672910
Ag 1.07445113 11.21210943 11.22287148
Ag 3.03197408 9.28875642 11.13826446
Ag 3.10857462 11.34288134 9.21360588
Ag 5.09613244 0.99383355 0.96762293
Ag 5.05763274 2.90383394 2.98799854
Ag 7.17051556 0.99229891 2.98468326
Ag 7.17997578 3.02277991 1.13203457
Ag 5.20154366 1.03853822 5.18446469
Ag 5.35506119 3.14010796 7.08253989
Ag 7.29402729 1.00470963 7.22888467
Ag 7.40725302 3.00296866 5.14520839
Ag 5.21124007 1.14672982 9.12312300
Ag 5.17822314 3.08978808 11.23187892
Ag 7.13564923 1.03471349 11.24166731
Ag 7.26592559 3.14499266 9.19297270
Ag 5.15606792 4.99966909 1.12405582
Ag 5.13958163 7.14628879 3.10929353
Ag 7.26232916 5.00569619 3.17583342
Ag 7.11909303 7.09098231 1.15950829
Ag 5.02876512 5.03155962 5.13490965
Ag 5.01108560 7.18236045 7.05557942
Ag 7.23675776 5.29330502 7.15368521
Ag 7.19987372 7.12369441 5.08523901
Ag 5.12080673 5.14708870 9.15813157
Ag 5.05190311 7.16559826 11.20752278
Ag 7.07722841 5.23283185 11.31115587
Ag 7.04832050 7.17111014 9.26005170
Ag 4.99735489 9.24789028 0.97662634
Ag 5.01552296 11.35490928 3.06221468
Ag 7.12835378 9.23007231 3.03997120
Ag 7.09680776 11.23665866 1.05219522
Ag 5.08884678 9.18588599 5.04201253
Ag 5.21028142 11.40794191 7.10490736
Ag 7.09294187 9.17475431 7.03856882
Ag 7.18390891 11.17672621 5.06744545
Ag 5.06679667 9.26007270 9.12291743
Ag 5.11233143 11.27976841 11.17453309
Ag 7.06613260 9.20926353 11.36788927
Ag 7.13532801 11.17955487 9.16849526
Ag 9.15690357 0.95643511 0.99371118
Ag 9.32491408 2.96311281 3.01853400
Ag 11.29023559 1.05077694 2.94489847
Ag 11.24334538 3.09056365 0.97295343
Ag 9.26531316 0.95638528 5.00014206
Ag 9.16423860 3.05355443 7.21889687
Ag 11.14513236 0.98347026 7.28434403
Ag 11.19984349 3.16885819 5.16931054
Ag 9.25170274 1.05708696 9.36286007
Ag 9.06892625 3.13517285 11.35941612
Ag 11.16854826 1.00354390 11.37958853
Ag 11.16707092 3.17052083 9.24715894
Ag 9.18513873 5.16732826 1.04047448
Ag 9.23515095 7.08027623 3.08456549
Ag 11.27636918 5.05260467 3.00818945
Ag 11.31469296 7.26280329 0.96881066
Ag 9.31368242 5.08950068 5.20715471
Ag 9.22783146 7.23108787 7.20246913
Ag 11.37863300 5.23850777 7.30192473
Ag 11.35341537 7.07376892 5.18450822
Ag 9.13929914 5.20374021 9.22589141
Ag 9.09039600 7.12201670 11.35274992
Ag 11.23161035 5.18275455 11.27706069
Ag 11.24679107 7.14898251 9.27348564
Ag 9.05515060 9.17603883 1.01304816
Ag 9.24873455 11.22058844 3.00717087
Ag 11.25081917 9.13216436 3.12472349
Ag 11.20714512 11.03131000 1.01004313
Ag 9.15575059 9.13154271 5.11558396
Ag 9.20966924 11.21895384 7.10800672
Ag 11.21376291 9.19582476 7.13911469
Ag 11.23011820 11.18937532 4.96793156
Ag 9.12561022 9.26747505 9.16675948
Ag 9.13765145 11.21322228 11.30483937
Ag 11.20547724 9.12310391 11.19129235
Ag 11.22800700 11.21963312 9.26012569
108
Step=2300 Lattice="12.27 0 0  0 12.27 0  0 0 12.27" Properties=species:S:1:pos:R:3
Ag 0.98741842 0.88508814 0.85606613
Ag 1.05008249 3.04690813 3.09363687
Ag 2.96952834 1.06108681 3.06938783
Ag 3.08853685 2.87615478 0.90817510
Ag 0.79779621 1.05581221 5.16678130
Ag 0.86888606 3.12723226 7.27006762
Ag 3.03586406 1.07377183 7.11775167
Ag 3.04663188 3.01621358 5.27527525
Ag 0.88600923 1.07875330 9.25292368
Ag 1.00320349 3.13100305 11.19878125
Ag 3.06442093 1.13131883 11.11366658
Ag 3.12628298 3.21878680 9.15548870
Ag 1.07193367 4.97866373 0.94514140
Ag 0.97988863 7.07955655 3.01420425
Ag 3.05076942 4.95468895 3.00177809
Ag 3.08537238 7.08910026 1.00647543
Ag 1.08956020 5.06737855 5.15634989
Ag 1.12080716 7.19783550 7.22680580
Ag 3.06863795 5.05294251 7.15543814
Ag 2.93345698 7.11649115 5.09560021
Ag 1.17918860 5.11257299 9.28097332
Ag 1.21809729 7.08522632 11.25529322
Ag 3.19447430 5.05372873 11.31422963
Ag 3.10650264 7.21519661 9.13059709
Ag 1.14526533 9.16553481 1.02723677
Ag 0.94634840 11.30713408 3.02948408
Ag 3.00750076 9.22368725 3.04133432
Ag 3.11050093 11.32026487 0.97382005
Ag 1.10284995 9.17457815 5.12918958
Ag 1.01296902 11.30877319 7.19499933
Ag 3.05654237 9.32975597 7.12750257
Ag 3.06459116 11.32646551 5.08313393
Ag 0.97367104 9.24495472 9.16023153
Ag 1.07804785 11.20768824 11.22037502
Ag 3.03669364 9.29513413 11.13784941
Ag 3.11819916 11.33539157 9.22793518
Ag 5.10037274 0.99224467 0.96177147
Ag 5.06596451 2.90444872 2.98135878
Ag 7.17777092 0.99653928 2.98765985
Ag 7.18110785 3.02283284 1.13523469
Ag 5.20305251 1.04174127 5.19763636
Ag 5.36633409 3.13751699 7.09319156
Ag 7.29416995 1.00381611 7.22371374
Ag 7.40427763 3.00502544 5.14008117
Ag 5.21645039 1.14252210 9.12838609
Ag 5.17145874 3.09279608 11.23482061
Ag 7.13904721 1.03646986 11.24922674
Ag 7.26836892 3.14096564 9.19486100
Ag 5.15855864 5.00119676 1.11679808
Ag 5.14484405 7.14313183 3.11600541
Ag 7.26590186 4.99638754 3.16948190
Ag 7.10855493 7.08459124 1.17114721
Ag 5.02744304 5.03109128 5.14222423
Ag 5.01913221 7.17416951 7.05358679
Ag 7.22965802 5.30095653 7.14520446
Ag 7.20550677 7.12640114 5.08674821
Ag 5.11343939 5.14161454 9.15617149
Ag 5.04160250 7.16989382 11.20452607
Ag 7.07904505 5.23628377 11.31675882
Ag 7.05329706 7.18198510 9.25012199
Ag 4.99855688 9.26219773 0.97159325
Ag 5.01333268 11.35137700 3.06218126
Ag 7.13389287 9.22981775 3.03948159
Ag 7.09038593 11.24282403 1.04895249
Ag 5.08577102 9.19210491 5.03521870
Ag 5.21267430 11.41327932 7.09919456
Ag 7.08776851 9.17347502 7.02977091
Ag 7.19310518 11.17390801 5.06508208
Ag 5.06527635 9.26929216 9.11454216
Ag 5.10136654 11.28164156 11.18650508
Ag 7.06149755 9.20818270 11.37200552
Ag 7.13926799 11.17941993 9.15670308
Ag 9.15789610 0.96584816 0.98977267
Ag 9.33046816 2.96542996 3.02356507
Ag 11.27806233 1.05262748 2.93034873
Ag 11.24434573 3.10011442 0.98355675
Ag 9.26173920 0.94964294 4.99769127
Ag 9.16794769 3.06403366 7.22284098
Ag 11.15188919 0.98027958 7.28684867
Ag 11.19413356 3.18168799 5.15746393
Ag 9.25012305 1.06124959 9.36794682
Ag 9.06061020 3.14318690 11.37387010
Ag 11.15652128 1.00515585 11.37892404
Ag 11.17113184 3.17291812 9.24519582
Ag 9.18854784 5.17424738 1.04767207
Ag 9.23583262 7.07604520 3.07578537
Ag 11.27899745 5.05438836 3.00200373
Ag 11.32414247 7.26732351 0.96853281
Ag 9.31343754 5.08735001 5.20403852
Ag 9.22255983 7.22103949 7.19806519
Ag 11.38077609 5.23865548 7.30695301
Ag 11.34386212 7.08322916 5.18074788
Ag 9.14166935 5.19672439 9.23495346
Ag 9.09059787 7.12701452 11.35331051
Ag 11.21911169 5.17997607 11.29052631
Ag 11.24824634 7.14107057 9.27741439
Ag 9.05906896 9.17237518 1.01526901
Ag 9.24804879 11.22317171 3.00590015
Ag 11.24749550 9.12783328 3.12118699
Ag 11.21149046 11.02448181 1.00743231
Ag 9.16381945 9.12805702 5.11225416
Ag 9.20714575 11.21157819 7.10942508
Ag 11.22010674 9.19288847 7.13957574
Ag 11.22864946 11.18805283 4.97484763
Ag 9.11943747 9.25648890 9.17297107
Ag 9.13706177 11.21160208 11.30822089
Ag 11.20524365 9.12489200 11.20255152
Ag 11.22499795 11.20232355 9.26040976
108
Step=2400 Lattice="12.27 0 0  0 12.27 0  0 0 12.27" Properties=species:S:1:pos:R:3
Ag 0.98691327 0.89386177 0.84909207
Ag 1.05527445 3.04960953 3.09252923
Ag 2.95782984 1.06167423 3.05651176
Ag 3.08198296 2.87804911 0.91248337
Ag 0.79027940 1.05259164 5.17584580
Ag 0.85880605 3.12967633 7.26655592
Ag 3.02828395 1.06737290 7.12483422
Ag 3.06160607 3.02462857 5.26800084
Ag 0.88844456 1.07180044 9.25129439
Ag 0.99929703 3.13352183 11.19715134
Ag 3.07109911 1.12228263 11.12010615
Ag 3.12869731 3.22620948 9.14957715
Ag 1.07718309 4.96824077 0.93338456
Ag 0.99475836 7.07921009 3.01637133
Ag 3.04334670 4.93820568 3.00361913
Ag 3.08444993 7.07511352 1.00145104
Ag 1.08157062 5.07198017 5.14997016
Ag 1.12290999 7.19465531 7.22138221
Ag 3.06467829 5.04633499 7.15726074
Ag 2.92838019 7.11424694 5.10138205
Ag 1.18124097 5.11521643 9.27540215
Ag 1.22822369 7.08224880 11.25263028
Ag 3.18476729 5.04771781 11.31564425
Ag 3.10473178 7.21696423 9.13745075
Ag 1.14959970 9.17234278 1.01949882
Ag 0.94238598 11.31797464 3.02440070
Ag 2.99915632 9.22549636 3.05888875
Ag 3.12090887 11.31281730 0.97765370
Ag 1.10494456 9.17632732 5.12950444
Ag 1.02455381 11.31746176 7.19137387
Ag 3.05249640 9.32874538 7.12552860
Ag 3.04910220 11.33471345 5.07620862
Ag 0.98086569 9.24089907 9.16421189
Ag 1.07988545 11.20349705 11.21729720
Ag 3.04257305 9.29966880 11.13837557
Ag 3.12705091 11.32847189 9.24011264
Ag 5.10536782 0.99061857 0.95548953
Ag 5.07471883 2.90632855 2.97741232
Ag 7.18483303 1.00012476 2.99290254
Ag 7.18191148 3.02377884 1.13692093
Ag 5.20460978 1.04643987 5.20836568
Ag 5.37604361 3.13419900 7.10511158
Ag 7.29472311 1.00292517 7.21770123
Ag 7.39863348 3.00733231 5.13374415
Ag 5.22056598 1.13785979 9.13420017
Ag 5.16558027 3.09547630 11.23754555
Ag 7.14239134 1.03781195 11.25660413
Ag 7.26901707 3.13703170 9.19791153
Ag 5.16061362 5.00369076 1.10931787
Ag 5.14842764 7.13918398 3.12269039
Ag 7.26825285 4.98737749 3.16311098
Ag 7.09747572 7.07913507 1.18171810
Ag 5.02759672 5.03166080 5.14741722
Ag 5.02784096 7.16593144 7.05190408
Ag 7.22138711 5.30632304 7.13686473
Ag 7.21026977 7.12909842 5.08742590
Ag 5.10698565 5.13627302 9.15420290
Ag 5.03127095 7.17500624 11.20265059
Ag 7.08074551 5.23760026 11.32186562
Ag 7.05920589 7.19433452 9.23930427
Ag 5.00019228 9.27536234 0.96782937
Ag 5.01241803 11.34691768 3.06250475
Ag 7.13895957 9.22914137 3.03936618
Ag 7.08383699 11.24919426 1.04543520
Ag 5.08191565 9.19910685 5.02884412
Ag 5.21339811 11.41556499 7.09469065
Ag 7.08272304 9.17214551 7.02288311
Ag 7.20206258 11.17282569 5.06222461
Ag 5.06460337 9.27797228 9.10641734
Ag 5.09094384 11.28395109 11.19856956
Ag 7.05689925 9.20636603 11.37381087
Ag 7.14343833 11.18053402 9.14581234
Ag 9.15916227 0.97542523 0.98650032
Ag 9.33436193 2.96953522 3.02870915
Ag 11.26622079 1.05333487 2.91612642
Ag 11.24556750 3.10915471 0.99358818
Ag 9.25869769 0.94290058 4.99673820
Ag 9.17413852 3.07529722 7.22679118
Ag 11.15850787 0.97775980 7.28773564
Ag 11.18989666 3.19224094 5.14595359
Ag 9.24751035 1.06469866 9.37191906
Ag 9.05404151 3.15128444 11.38711151
Ag 11.14538916 1.00666896 11.37635253
Ag 11.17476581 3.17494714 9.24456997
Ag 9.19233456 5.17982111 1.05528291
Ag 9.23707032 7.07290658 3.06752725
Ag 11.28171385 5.05713229 2.99641002
Ag 11.33269533 7.27017704 0.96878910
Ag 9.31202578 5.08729144 5.20044959
Ag 9.21759801 7.21066776 7.19371031
Ag 11.38087634 5.23792192 7.31080737
Ag 11.33385238 7.09342480 5.17619714
Ag 9.14480367 5.18982789 9.24439726
Ag 9.09181468 7.13366217 11.35226792
Ag 11.20682306 5.17689777 11.30368379
Ag 11.25000971 7.13407213 9.28130014
Ag 9.06499174 9.16809310 1.01841707
Ag 9.24639189 11.22531051 3.00460639
Ag 11.24439334 9.12297957 3.11701180
Ag 11.21658235 11.01918438 1.00439051
Ag 9.17315900 9.12509914 5.10801599
Ag 9.20470625 11.20416518 7.11102437
Ag 11.22741136 9.19027758 7.13998228
Ag 11.22734571 11.18685989 4.98434276
Ag 9.11373270 9.24387194 9.18010827
Ag 9.13650547 11.20954479 11.31064160
Ag 11.20537439 9.12753619 11.21400404
Ag 11.22139101 11.18557411 9.26078062
108
Step=2500 Lattice="12.27 0 0  0 12.27 0  0 0 12.27" Properties=species:S:1:pos:R:3
Ag 0.98689251 0.90467809 0.84408678
Ag 1.05881452 3.05176956 3.09106724
Ag 2.94657355 1.06142319 3.04428867
Ag 3.07445827 2.88237076 0.91827611
Ag 0.78445664 1.04977776 5.18451234
Ag 0.85086024 3.13044464 7.26198596
Ag 3.02075465 1.06052783 7.13418234
Ag 3.07620929 3.03275187 5.25814084
Ag 0.89202854 1.06450657 9.24993533
Ag 0.99523919 3.13408002 11.19522021
Ag 3.07796475 1.11203953 11.12582961
Ag 3.13142165 3.22906336 9.14428310
Ag 1.08224604 4.95991727 0.92333442
Ag 1.01042110 7.07878973 3.01870702
Ag 3.03685929 4.92330370 3.00617017
Ag 3.08475148 7.06167827 0.99830597
Ag 1.07223822 5.07617312 5.14312687
Ag 1.12371300 7.19129258 7.21567229
Ag 3.06079519 5.04167270 7.15867317
Ag 2.92619407 7.11199671 5.10628013
Ag 1.18096810 5.11946154 9.26946127
Ag 1.23579841 7.08057968 11.24943422
Ag 3.17487717 5.04182501 11.31641125
Ag 3.10341594 7.21840732 9.14481546
Ag 1.15286185 9.17975565 1.01099965
Ag 0.93979958 11.32749366 3.01931042
Ag 2.99202023 9.22710461 3.07664178
Ag 3.12955515 11.30530546 0.98151823
Ag 1.10480811 9.17940040 5.12946766
Ag 1.03537198 11.32561500 7.18746252
Ag 3.04943173 9.32747376 7.12370683
Ag 3.03307709 11.34291435 5.06977217
Ag 0.98881023 9.23616322 9.16857297
Ag 1.07992620 11.19971981 11.21378250
Ag 3.04955431 9.30215246 11.13991481
Ag 3.13494700 11.32230075 9.24977745
Ag 5.11092564 0.98919555 0.94905216
Ag 5.08368017 2.90931803 2.97617767
Ag 7.19157264 1.00297565 3.00027961
Ag 7.18233813 3.02558602 1.13711354
Ag 5.20614033 1.05263575 5.21634930
Ag 5.38403968 3.13024664 7.11809109
Ag 7.29586977 1.00215340 7.21092228
Ag 7.39054612 3.00980905 5.12648039
Ag 5.22356798 1.13274695 9.14053951
Ag 5.16068233 3.09775151 11.24000435
Ag 7.14560534 1.03872071 11.26363436
Ag 7.26793373 3.13324396 9.20216757
Ag 5.16203152 5.00705472 1.10179559
Ag 5.15012391 7.13447226 3.12939281
Ag 7.26932364 4.97888263 3.15687725
Ag 7.08613687 7.07476703 1.19094716
Ag 5.02929972 5.03322300 5.15045988
Ag 5.03690510 7.15785826 7.05057890
Ag 7.21212074 5.30916809 7.12893665
Ag 7.21415808 7.13177140 5.08703298
Ag 5.10174760 5.13139811 9.15237354
Ag 5.02119592 7.18078035 11.20178648
Ag 7.08226378 5.23700376 11.32628267
Ag 7.06576658 7.20777795 9.22786401
Ag 5.00218324 9.28693496 0.96560428
Ag 5.01280986 11.34177168 3.06330178
Ag 7.14350055 9.22807668 3.03957918
Ag 7.07743980 11.25563495 1.04177742
Ag 5.07731748 9.20679943 5.02304604
Ag 5.21238003 11.41467211 7.09145242
Ag 7.07792838 9.17080920 7.01789436
Ag 7.21062755 11.17346087 5.05889571
Ag 5.06483429 9.28597632 9.09862263
Ag 5.08152917 11.28666095 11.21041258
Ag 7.05243924 9.20387487 11.37332638
Ag 7.14776340 11.18285038 9.13607853
Ag 9.16057170 0.98498857 0.98403202
Ag 9.33640000 2.97543232 3.03388866
Ag 11.25502531 1.05280243 2.90249909
Ag 11.24698566 3.11743849 1.00277791
Ag 9.25626651 0.93637545 4.99736228
Ag 9.18256004 3.08715500 7.23054540
Ag 11.16468030 0.97585936 7.28713668
Ag 11.18735125 3.20021785 5.13493989
Ag 9.24390404 1.06741131 9.37461968
Ag 9.04937492 3.15937862 11.39889948
Ag 11.13546552 1.00815042 11.37197339
Ag 11.17792435 3.17653756 9.24542410
Ag 9.19636565 5.18403832 1.06311663
Ag 9.23880390 7.07095840 3.06000223
Ag 11.28463644 5.06102322 2.99149201
Ag 11.34041154 7.27124485 0.96963059
Ag 9.30932400 5.08946012 5.19637964
Ag 9.21315959 7.20021431 7.18951809
Ag 11.37883910 5.23647341 7.31327768
Ag 11.32355236 7.10413801 5.17092056
Ag 9.14850109 5.18320360 9.25406715
Ag 9.09393114 7.14180689 11.34974408
Ag 11.19494330 5.17358928 11.31634705
Ag 11.25209005 7.12815597 9.28525468
Ag 9.07268022 9.16327440 1.02242417
Ag 9.24388382 11.22694743 3.00317575
Ag 11.24166683 9.11780290 3.11227847
Ag 11.22231236 11.01560657 1.00100797
Ag 9.18362260 9.12267742 5.10297883
Ag 9.20245964 11.19674340 7.11283762
Ag 11.23555059 9.18792429 7.14042787
Ag 11.22624803 11.18570562 4.99612814
Ag 9.10859881 9.22975412 9.18805278
Ag 9.13592489 11.20703774 11.31210799
Ag 11.20591346 9.13085610 11.22530196
Ag 11.21722744 11.16962305 9.26117067
108
Step=2600 Lattice="12.27 0 0  0 12.27 0  0 0 12.27" Properties=species:S:1:pos:R:3
Ag 0.98730000 0.91726276 0.84089043
Ag 1.06033433 3.05318174 3.08934474
Ag 2.93611555 1.06034698 3.03284573
Ag 3.06625714 2.88889442 0.92531023
Ag 0.78034059 1.04759248 5.19244566
Ag 0.84521232 3.12949535 7.25634066
Ag 3.01347330 1.05368703 7.14545985
Ag 3.09020468 3.04015478 5.24608051
Ag 0.89671205 1.05696701 9.24895231
Ag 0.99107325 3.13251392 11.19277310
Ag 3.08484956 1.10093677 11.13087714
Ag 3.13427799 3.22705953 9.13982112
Ag 1.08697902 4.95395377 0.91528885
Ag 1.02661836 7.07831650 3.02107645
Ag 3.03163068 4.91031590 3.00933807
Ag 3.08630786 7.04906461 0.99724507
Ag 1.06167400 5.07990864 5.13596793
Ag 1.12316797 7.18779124 7.20982843
Ag 3.05700213 5.03911214 7.15943528
Ag 2.92704057 7.10972818 5.11029130
Ag 1.17835101 5.12515408 9.26327236
Ag 1.24061489 7.08028272 11.24578729
Ag 3.16506425 5.03606016 11.31635844
Ag 3.10264241 7.21952165 9.15234712
Ag 1.15522651 9.18756241 1.00198078
Ag 0.93842492 11.33556884 3.01429166
Ag 2.98614933 9.22848047 3.09409775
Ag 3.13601216 11.29801050 0.98544702
Ag 1.10229189 9.18374643 5.12914282
Ag 1.04521830 11.33289472 7.18349920
Ag 3.04743002 9.32594195 7.12202419
Ag 3.01675375 11.35108717 5.06386613
Ag 0.99738664 9.23078098 9.17320880
Ag 1.07819573 11.19652864 11.20998249
Ag 3.05753443 9.30246677 11.14251335
Ag 3.14171271 11.31700673 9.25664803
Ag 5.11681365 0.98824836 0.94278490
Ag 5.09264467 2.91326273 2.97759452
Ag 7.19787629 1.00507098 3.00958857
Ag 7.18233142 3.02817769 1.13587686
Ag 5.20755227 1.06022420 5.22143384
Ag 5.39016629 3.12577066 7.13186451
Ag 7.29773578 1.00160370 7.20346337
Ag 7.38028298 3.01238402 5.11860479
Ag 5.22547250 1.12717036 9.14735774
Ag 5.15680762 3.09955096 11.24216684
Ag 7.14863865 1.03920442 11.27016270
Ag 7.26525475 3.12965518 9.20762860
Ag 5.16262464 5.01116388 1.09440471
Ag 5.14976426 7.12903851 3.13615144
Ag 7.26906921 4.97113889 3.15090576
Ag 7.07483701 7.07161376 1.19858498
Ag 5.03260297 5.03569412 5.15138814
Ag 5.04602562 7.15016815 7.04965530
Ag 7.20207050 5.30931215 7.12165670
Ag 7.21718925 7.13442268 5.08538678
Ag 5.09796428 5.12728865 9.15083058
Ag 5.01167339 7.18702600 11.20182644
Ag 7.08357243 5.23476957 11.32984363
Ag 7.07269472 7.22190973 9.21606324
Ag 5.00450360 9.29650083 0.96514388
Ag 5.01450415 11.33617920 3.06466428
Ag 7.14746028 9.22665868 3.04008299
Ag 7.07148125 11.26198871 1.03810914
Ag 5.07206148 9.21507665 5.01798335
Ag 5.20960013 11.41061857 7.08944574
Ag 7.07351791 9.16952425 7.01472727
Ag 7.21864534 11.17573689 5.05516152
Ag 5.06600879 9.29315980 9.09124914
Ag 5.07352223 11.28970259 11.22172371
Ag 7.04822474 9.20079561 11.37063881
Ag 7.15219273 11.18629331 9.12769816
Ag 9.16199398 0.99437086 0.98247038
Ag 9.33645889 2.98306113 3.03902979
Ag 11.24472640 1.05097025 2.88973135
Ag 11.24856710 3.12473666 1.01089921
Ag 9.25451878 0.93030197 4.99960213
Ag 9.19287766 3.09942642 7.23391309
Ag 11.17013044 0.97451633 7.28522446
Ag 11.18661341 3.20543004 5.12457156
Ag 9.23935111 1.06937894 9.37590104
Ag 9.04673694 3.16736044 11.40900861
Ag 11.12703706 1.00964266 11.36592222
Ag 11.18059894 3.17761362 9.24784523
Ag 9.20047845 5.18693242 1.07097077
Ag 9.24094543 7.07028195 3.05339623
Ag 11.28787574 5.06621369 2.98733716
Ag 11.34736590 7.27043804 0.97108916
Ag 9.30527981 5.09387477 5.19181987
Ag 9.20942205 7.18989667 7.18557868
Ag 11.37461696 5.23445373 7.31419357
Ag 11.31313920 7.11513812 5.16498317
Ag 9.15255494 5.17699602 9.26381408
Ag 9.09681136 7.15123540 11.34589243
Ag 11.18367182 5.17012899 11.32833240
Ag 11.25448115 7.12345781 9.28936020
Ag 9.08186412 9.15801567 1.02719339
Ag 9.24068424 11.22802850 3.00152548
Ag 11.23947294 9.11253251 3.10705907
Ag 11.22856470 11.01393479 0.99739843
Ag 9.19502210 9.12080379 5.09728146
Ag 9.20050409 11.18932234 7.11490123
Ag 11.24438094 9.18576126 7.14100856
Ag 11.22540089 11.18451160 5.00986645
Ag 9.10414540 9.21433125 9.19666214
Ag 9.13526778 11.20407802 11.31265779
Ag 11.20690260 9.13465906 11.23612476
Ag 11.21256860 11.15468191 9.26150118
108
Step=2700 Lattice="12.27 0 0  0 12.27 0  0 0 12.27" Properties=species:S:1:pos:R:3
Ag 0.98805533 0.93133034 0.83931338
Ag 1.05951836 3.05366572 3.08744668
Ag 2.92679295 1.05848288 3.02229245
Ag 3.05770345 2.89734062 0.93330208
Ag 0.77794672 1.04621416 5.19932602
Ag 0.84195538 3.12685706 7.24966207
Ag 3.00667010 1.04727795 7.15830101
Ag 3.10337224 3.04647192 5.23223357
Ag 0.90241204 1.04927195 9.24841278
Ag 0.98685384 3.12876207 11.18965246
Ag 3.09158321 1.08933666 11.13536049
Ag 3.13705874 3.22014346 9.13632434
Ag 1.09121976 4.95054887 0.90946888
Ag 1.04309144 7.07782707 3.02335677
Ag 3.02793169 4.89954916 3.01305247
Ag 3.08908318 7.03750231 0.99837950
Ag 1.05003955 5.08317643 5.12864324
Ag 1.12126340 7.18420660 7.20397485
Ag 3.05331502 5.03869132 7.15936691
Ag 2.93094743 7.10744920 5.11344862
Ag 1.17346359 5.13203913 9.25694583
Ag 1.24254669 7.08139776 11.24182136
Ag 3.15556606 5.03044288 11.31530490
Ag 3.10247526 7.22029610 9.15969382
Ag 1.15686363 9.19553811 0.99268655
Ag 0.93808307 11.34209081 3.00942798
Ag 2.98156583 9.22961089 3.11077729
Ag 3.13993331 11.29119615 0.98948403
Ag 1.09733188 9.18925485 5.12861103
Ag 1.05388050 11.33896370 7.17971190
Ag 3.04652149 9.32413841 7.12044897
Ag 3.00039203 11.35925241 5.05853430
Ag 1.00647245 9.22480852 9.17801612
Ag 1.07478412 11.19407103 11.20604395
Ag 3.06636809 9.30060103 11.14618177
Ag 3.14719652 11.31265534 9.26054415
Ag 5.12278298 0.98805907 0.93703948
Ag 5.10143062 2.91801582 2.98153109
Ag 7.20365359 1.00642705 3.02056191
Ag 7.18183049 3.03144615 1.13331221
Ag 5.20874423 1.06899378 5.22361762
Ag 5.39426696 3.12087874 7.14613206
Ag 7.30038133 1.00135697 7.19542047
Ag 7.36813664 3.01500030 5.11045704
Ag 5.22632688 1.12110389 9.15458708
Ag 5.15395216 3.10081392 11.24402047
Ag 7.15147234 1.03928952 11.27603706
Ag 7.26117683 3.12631244 9.21425378
Ag 5.16222886 5.01586961 1.08730588
Ag 5.14722948 7.12295709 3.14299192
Ag 7.26745599 4.96439761 3.14528707
Ag 7.06386965 7.06977380 1.20442124
Ag 5.03752817 5.03895495 5.15029347
Ag 5.05492094 7.14307472 7.04917044
Ag 7.19148477 5.30664828 7.11521684
Ag 7.21938231 7.13706569 5.08237622
Ag 5.09578554 5.12418512 9.14971343
Ag 5.00299685 7.19353181 11.20267299
Ag 7.08467671 5.23120575 11.33242409
Ag 7.07970370 7.23628814 9.20414427
Ag 5.00716646 9.30370088 0.96662310
Ag 5.01746297 11.33037578 3.06665217
Ag 7.15079303 9.22492318 3.04084186
Ag 7.06623464 11.26808167 1.03455478
Ag 5.06627025 9.22381909 5.01381406
Ag 5.20509113 11.40357491 7.08854359
Ag 7.06963112 9.16836007 7.01324319
Ag 7.22596387 11.17952281 5.05113175
Ag 5.06814492 9.29938989 9.08440094
Ag 5.06726353 11.29297094 11.23218645
Ag 7.04435588 9.19723693 11.36589322
Ag 7.15669511 11.19076204 9.12082916
Ag 9.16330797 1.00342034 0.98187280
Ag 9.33450222 2.99230857 3.04406332
Ag 11.23549421 1.04782771 2.87808071
Ag 11.25026982 3.13084756 1.01778044
Ag 9.25352699 0.92491505 5.00345398
Ag 9.20471702 3.11194793 7.23672761
Ag 11.17462380 0.97365725 7.28220270
Ag 11.18767649 3.20780951 5.11497151
Ag 9.23390479 1.07060970 9.37563431
Ag 9.04622074 3.17509757 11.41723828
Ag 11.12034332 1.01116786 11.35836391
Ag 11.18281739 3.17810061 9.25185582
Ag 9.20449788 5.18857591 1.07863241
Ag 9.24338276 7.07093176 3.04785319
Ag 11.29152403 5.07281064 2.98403033
Ag 11.35364247 7.26770555 0.97317215
Ag 9.29992530 5.10043226 5.18674378
Ag 9.20651568 7.17991312 7.18197343
Ag 11.36821745 5.23197494 7.31343363
Ag 11.30280053 7.12619979 5.15846800
Ag 9.15676079 5.17133957 9.27349632
Ag 9.10030860 7.16168475 11.34089285
Ag 11.17320891 5.16660354 11.33946596
Ag 11.25716785 7.12006772 9.29366243
Ag 9.09225713 9.15241985 1.03260486
Ag 9.23697421 11.22850321 2.99959275
Ag 11.23797047 9.10740697 3.10141152
Ag 11.23520169 11.01434424 0.99369090
Ag 9.20711290 9.11949308 5.09107599
Ag 9.19892343 11.18189547 7.11725170
Ag 11.25375243 9.18372130 7.14182784
Ag 11.22484979 11.18321965 5.02518995
Ag 9.10049445 9.19786464 9.20578517
Ag 9.13449097 11.20067433 11.31235496
Ag 11.20838466 9.13874410 11.24620128
Ag 11.20748160 11.14093271 9.26168826
108
Step=2800 Lattice="12.27 0 0  0 12.27 0  0 0 12.27" Properties=species:S:1:pos:R:3
Ag 0.98906147 0.94658103 0.83915287
Ag 1.05615367 3.05307946 3.08544662
Ag 2.91891172 1.05589894 3.01271662
Ag 3.04913576 2.90739812 0.94194917
Ag 0.77728915 1.04577049 5.20486173
Ag 0.84110902 3.12262890 7.24205060
Ag 3.00059377 1.04167591 7.17232625
Ag 3.11551061 3.05142060 5.21702563
Ag 0.90901332 1.04149775 9.24834471
Ag 0.98265136 3.12287565 11.18578018
Ag 3.09799622 1.07759551 11.13943857
Ag 3.13955287 3.20849842 9.13385499
Ag 1.09479523 4.94982380 0.90600013
Ag 1.05958687 7.07737100 3.02543578
Ag 3.02595606 4.89126259 3.01724447
Ag 3.09298205 7.02719104 1.00172010
Ag 1.03753835 5.08600215 5.12130047
Ag 1.11802510 7.18061400 7.19819883
Ag 3.04976382 5.04032295 7.15837025
Ag 2.93782691 7.10518594 5.11581512
Ag 1.16645863 5.13978421 9.25057770
Ag 1.24155631 7.08393310 11.23771592
Ag 3.14658218 5.02500955 11.31307584
Ag 3.10295403 7.22071411 9.16652849
Ag 1.15792557 9.20344811 0.98336943
Ag 0.93857420 11.34696477 3.00480131
Ag 2.97825984 9.23049848 3.12623635
Ag 3.14108175 11.28509223 0.99367701
Ag 1.08995365 9.19577153 5.12795955
Ag 1.06114727 11.34350418 7.17631400
Ag 3.04669424 9.32204012 7.11892787
Ag 2.98426024 11.36742541 5.05382127
Ag 1.01594312 9.21832457 9.18289915
Ag 1.06984160 11.19246179 11.20209847
Ag 3.07587431 9.29666056 11.15089224
Ag 3.15128016 11.30924059 9.26140304
Ag 5.12855307 0.98890097 0.93217460
Ag 5.10989221 2.92344340 2.98779204
Ag 7.20882073 1.00709717 3.03288069
Ag 7.18077620 3.03524778 1.12954772
Ag 5.20961186 1.07863614 5.22303638
Ag 5.39619118 3.11566381 7.16057627
Ag 7.30379929 1.00146072 7.18689721
Ag 7.35441209 3.01762078 5.10238126
Ag 5.22620580 1.11451351 9.16213526
Ag 5.15207143 3.10149253 11.24557243
Ag 7.15411671 1.03901633 11.28111241
Ag 7.25594173 3.12325540 9.22196660
Ag 5.16071344 5.02100557 1.08064116
Ag 5.14247045 7.11632173 3.14991227
Ag 7.26446048 4.95891945 3.14007345
Ag 7.05350515 7.06931614 1.20829723
Ag 5.04406147 5.04285411 5.14731463
Ag 5.06333686 7.13677964 7.04915169
Ag 7.18064610 5.30115303 7.10975797
Ag 7.22076116 7.13972643 5.07797168
Ag 5.09526176 5.12225395 9.14914456
Ag 4.99544827 7.20007113 11.20424221
Ag 7.08560603 5.22663460 11.33393020
Ag 7.08650447 7.25044545 9.19232407
Ag 5.01020688 9.30825544 0.97016001
Ag 5.02161621 11.32458840 3.06928769
Ag 7.15346390 9.22290671 3.04182355
Ag 7.06196340 11.27373192 1.03123174
Ag 5.06009885 9.23289449 5.01068867
Ag 5.19893558 11.39385256 7.08853956
Ag 7.06640919 9.16739325 7.01325066
Ag 7.23244062 11.18464023 5.04694827
Ag 5.07123605 9.30455208 9.07819572
Ag 5.06301367 11.29632264 11.24150300
Ag 7.04091521 9.19332615 11.35928374
Ag 7.16125112 11.19613525 9.11559699
Ag 9.16440964 1.01200517 0.98223715
Ag 9.33058713 3.00299737 3.04892613
Ag 11.22742755 1.04341937 2.86779396
Ag 11.25205746 3.13560679 1.02331332
Ag 9.25336452 0.92044801 5.00887112
Ag 9.21767898 3.12455747 7.23885279
Ag 11.17797571 0.97321880 7.27829522
Ag 11.19040884 3.20740427 5.10623140
Ag 9.22762732 1.07111995 9.37371832
Ag 9.04788002 3.18243492 11.42342293
Ag 11.11555925 1.01273932 11.34948509
Ag 11.18463603 3.17793106 9.25740847
Ag 9.20824166 5.18907467 1.08590399
Ag 9.24598453 7.07291893 3.04348237
Ag 11.29563443 5.08086353 2.98164579
Ag 11.35932885 7.26304052 0.97585956
Ag 9.29337608 5.10890191 5.18113438
Ag 9.20451655 7.17043920 7.17876570
Ag 11.35970835 5.22911358 7.31093133
Ag 11.29273338 7.13708879 5.15146760
Ag 9.16092359 5.16635722 9.28298082
Ag 9.10427450 7.17284118 11.33494818
Ag 11.16375471 5.16310690 11.34958264
Ag 11.26012458 7.11802851 9.29816667
Ag 9.10357118 9.14661019 1.03852095
Ag 9.23294595 11.22834106 2.99733955
Ag 11.23731849 9.10268108 3.09537615
Ag 11.24207156 11.01698830 0.99001361
Ag 9.21960116 9.11876356 5.08453497
Ag 9.19778322 11.17444464 7.11993075
Ag 11.26350995 9.18173797 7.14298410
Ag 11.22463882 11.18180025 5.04171665
Ag 9.09778564 9.18069629 9.21524528
Ag 9.13356376 11.19684825 11.31128406
Ag 11.21040259 9.14290780 11.25530640
Ag 11.20203495 11.12852675 9.26164829
108
Step=2900 Lattice="12.27 0 0  0 12.27 0  0 0 12.27" Properties=species:S:1:pos:R:3
Ag 0.99021271 0.96271763 0.84020762
Ag 1.05015018 3.05135446 3.08340456
Ag 2.91273647 1.05269833 3.00418519
Ag 3.04089660 2.91874532 0.95095134
Ag 0.77837538 1.04633964 5.20880318
Ag 0.84262309 3.11697444 7.23365882
Ag 2.99549291 1.03720065 7.18714875
Ag 3.12644208 3.05480829 5.20088261
Ag 0.91637170 1.03371177 9.24873731
Ag 0.97855608 3.11501861 11.18116881
Ag 3.10393220 1.06604047 11.14329451
Ag 3.14157053 3.19252435 9.13240102
Ag 1.09753393 4.95181407 0.90490402
Ag 1.07586594 7.07700037 3.02723366
Ag 3.02580014 4.88564690 3.02186147
Ag 3.09786087 7.01830312 1.00717829
Ag 1.02440962 5.08844145 5.11408194
Ag 1.11351473 7.17707539 7.19254673
Ag 3.04639766 5.04380340 7.15643593
Ag 2.94748259 7.10297903 5.11746989
Ag 1.15754673 5.14800967 9.24424840
Ag 1.23769718 7.08785482 11.23369431
Ag 3.13826140 5.01981780 11.30951881
Ag 3.10409271 7.22075658 9.17255017
Ag 1.15853756 9.21104615 0.97426702
Ag 0.93969376 11.35011358 3.00048814
Ag 2.97618943 9.23115912 3.14009087
Ag 3.13935366 11.27987907 0.99804995
Ag 1.08026585 9.20310008 5.12726829
Ag 1.06681999 11.34623972 7.17349567
Ag 3.04788896 9.31961353 7.11741269
Ag 2.96862751 11.37560960 5.04977075
Ag 1.02567457 9.21142994 9.18777137
Ag 1.06356909 11.19177975 11.19825627
Ag 3.08584607 9.29086285 11.15658246
Ag 3.15388616 11.30668388 9.25927968
Ag 5.13384501 0.99100656 0.92853497
Ag 5.11791189 2.92942811 2.99612590
Ag 7.21330950 1.00716530 3.04618185
Ag 7.17911910 3.03942662 1.12472677
Ag 5.21005287 1.08876726 5.21993691
Ag 5.39580164 3.11019575 7.17487865
Ag 7.30791946 1.00195091 7.17800320
Ag 7.33941875 3.02023187 5.09470801
Ag 5.22520733 1.10735442 9.16990215
Ag 5.15108668 3.10155397 11.24684496
Ag 7.15660610 1.03842942 11.28526331
Ag 7.24981812 3.12051580 9.23065907
Ag 5.15798324 5.02639497 1.07452880
Ag 5.13550627 7.10925095 3.15686996
Ag 7.26006923 4.95496562 3.13527230
Ag 7.04397508 7.07027882 1.21011431
Ag 5.05214852 5.04721190 5.14263135
Ag 5.07105667 7.13145821 7.04961424
Ag 7.16986410 5.29289096 7.10536810
Ag 7.22135438 7.14242384 5.07222796
Ag 5.09634464 5.12158082 9.14922045
Ag 4.98929057 7.20640606 11.20646436
Ag 7.08640470 5.22137657 11.33430569
Ag 7.09280629 7.26390235 9.18079194
Ag 5.01366254 9.30998588 0.97581214
Ag 5.02686428 11.31903184 3.07255250
Ag 7.15544471 9.22064703 3.04300070
Ag 7.05890112 11.27875972 1.02824856
Ag 5.05372790 9.24215905 5.00874138
Ag 5.19126096 11.38187576 7.08917296
Ag 7.06399061 9.16670330 7.01451656
Ag 7.23795539 11.19087234 5.04277802
Ag 5.07525505 9.30855411 9.07276406
Ag 5.06094612 11.29957917 11.24941731
Ag 7.03796106 9.18920489 11.35104350
Ag 7.16584507 11.20227594 9.11208292
Ag 9.16521762 1.02001656 0.98351288
Ag 9.32486051 3.01488931 3.05356333
Ag 11.22056349 1.03784360 2.85910358
Ag 11.25389068 3.13889556 1.02745623
Ag 9.25410066 0.91711238 5.01576459
Ag 9.23135411 3.13710227 7.24018503
Ag 11.18005832 0.97314493 7.27373419
Ag 11.19456776 3.20436050 5.09840831
Ag 9.22058612 1.07093563 9.37008730
Ag 9.05172261 3.18919741 11.42744194
Ag 11.11278290 1.01435168 11.33948554
Ag 11.18612827 3.17705018 9.26438482
Ag 9.21152205 5.18856234 1.09261773
Ag 9.24860630 7.07621505 3.04034369
Ag 11.30023029 5.09035574 2.98023915
Ag 11.36451040 7.25648479 0.97910407
Ag 9.28581638 5.11894719 5.17498448
Ag 9.20344413 7.16162276 7.17599948
Ag 11.34922027 5.22591280 7.30667717
Ag 11.28314197 7.14757148 5.14408275
Ag 9.16486389 5.16215923 9.29214807
Ag 9.10856696 7.18436673 11.32828275
Ag 11.15550673 5.15973882 11.35852641
Ag 11.26331405 7.11733708 9.30283658
Ag 9.11552892 9.14071550 1.04479183
Ag 9.22879305 11.22753469 2.99475789
Ag 11.23767339 9.09860901 3.08897514
Ag 11.24901455 11.02198686 0.98648167
Ag 9.23216405 9.11865392 5.07784257
Ag 9.19712773 11.16694507 7.12297082
Ag 11.27349336 9.17974565 7.14457440
Ag 11.22480781 11.18025860 5.05906368
Ag 9.09617912 9.16323453 9.22484676
Ag 9.13247080 11.19263463 11.30954454
Ag 11.21298505 9.14695258 11.26327162
Ag 11.19629473 11.11758500 9.26130265
108
Step=3000 Lattice="12.27 0 0  0 12.27 0  0 0 12.27" Properties=species:S:1:pos:R:3
Ag 0.99140230 0.97944043 0.84228983
Ag 1.04155510 3.04849886 3.08136509
Ag 2.90848189 1.04901992 2.99675487
Ag 3.03330689 2.93106889 0.96002848
Ag 0.78120066 1.04793638 5.21096475
Ag 0.84638689 3.11011039 7.22468075
Ag 2.99159539 1.03409090 7.20237407
Ag 3.13601420 3.05653116 5.18422198
Ag 0.92431865 1.02597884 9.24954321
Ag 0.97468077 3.10545683 11.17591970
Ag 3.10923401 1.05495954 11.14711669
Ag 3.14296022 3.17279528 9.13188938
Ag 1.09928120 4.95646977 0.90610070
Ag 1.09170895 7.07678247 3.02870593
Ag 3.02745221 4.88280997 3.02685280
Ag 3.10354141 7.01098056 1.01457404
Ag 1.01092168 5.09057122 5.10712303
Ag 1.10782658 7.17364650 7.18702518
Ag 3.04327609 5.04883552 7.15363328
Ag 2.95962252 7.10087908 5.11851253
Ag 1.14697345 5.15632059 9.23802352
Ag 1.23110930 7.09308385 11.22999451
Ag 3.13069331 5.01494715 11.30451867
Ag 3.10587929 7.22038562 9.17750111
Ag 1.15879155 9.21809089 0.96560298
Ag 0.94124486 11.35148193 2.99655735
Ag 2.97527259 9.23162005 3.15202556
Ag 3.13479140 11.27567620 1.00260143
Ag 1.06847074 9.21101239 5.12658898
Ag 1.07072751 11.34695833 7.17141621
Ag 3.05000314 9.31681747 7.11584427
Ag 2.95375715 11.38379036 5.04642707
Ag 1.03554569 9.20424595 9.19255629
Ag 1.05620504 11.19206819 11.19459979
Ag 3.09606128 9.28352199 11.16314468
Ag 3.15498193 11.30484074 9.25434967
Ag 5.13840299 0.99453908 0.92643012
Ag 5.12539983 2.93587147 3.00623718
Ag 7.21707215 1.00672972 3.06007480
Ag 7.17682788 3.04382950 1.11899704
Ag 5.20997034 1.09895444 5.21464578
Ag 5.39298150 3.10451284 7.18873575
Ag 7.31261729 1.00284973 7.16885281
Ag 7.32346664 3.02284574 5.08775423
Ag 5.22344901 1.09958589 9.17777061
Ag 5.15089076 3.10098187 11.24786036
Ag 7.15899124 1.03757680 11.28839185
Ag 7.24308293 3.11811650 9.24019455
Ag 5.15399352 5.03185829 1.06905894
Ag 5.12642876 7.10189437 3.16377299
Ag 7.25428012 4.95278675 3.13086644
Ag 7.03546096 7.07266722 1.20983703
Ag 5.06169212 5.05182486 5.13646036
Ag 5.07791083 7.12725468 7.05055933
Ag 7.15946324 5.28201214 7.10208532
Ag 7.22119592 7.14517725 5.06527442
Ag 5.09889920 5.12217350 9.15002438
Ag 4.98476080 7.21229955 11.20928747
Ag 7.08712355 5.21573717 11.33353557
Ag 7.09832123 7.27616668 9.16970409
Ag 5.01755630 9.30882920 0.98357622
Ag 5.03308183 11.31390501 3.07638804
Ag 7.15671508 9.21818413 3.04435590
Ag 7.05723526 11.28299868 1.02570270
Ag 5.04735503 9.25146353 5.00810064
Ag 5.18223324 11.36814505 7.09015860
Ag 7.06250690 9.16636859 7.01677896
Ag 7.24239880 11.19797448 5.03880525
Ag 5.08013313 9.31132925 9.06824676
Ag 5.06113918 11.30253614 11.25573546
Ag 7.03552532 9.18502397 11.34143440
Ag 7.17045770 11.20903584 9.11032327
Ag 9.16567625 1.02737070 0.98560687
Ag 9.31754588 3.02771828 3.05793051
Ag 11.21489096 1.03124479 2.85222380
Ag 11.25572104 3.14064664 1.03023160
Ag 9.25579469 0.91508774 5.02400481
Ag 9.24534338 3.14943653 7.24065238
Ag 11.18080572 0.97338708 7.26874844
Ag 11.19982477 3.19889694 5.09152458
Ag 9.21287808 1.07009127 9.36471651
Ag 9.05770485 3.19519502 11.42922802
Ag 11.11202957 1.01598046 11.32856111
Ag 11.18737095 3.17542021 9.27259864
Ag 9.21416379 5.18719450 1.09864423
Ag 9.25109781 7.08075062 3.03844331
Ag 11.30529353 5.10120538 2.97984062
Ag 11.36926438 7.24813119 0.98283402
Ag 9.27747521 5.13016167 5.16829005
Ag 9.20326380 7.15358666 7.17369239
Ag 11.33694603 5.22238971 7.30071711
Ag 11.27423388 7.15742143 5.13642197
Ag 9.16842336 5.15884182 9.30087131
Ag 9.11305579 7.19590653 11.32114267
Ag 11.14865579 5.15660246 11.36615962
Ag 11.26668609 7.11794826 9.30759561
Ag 9.12788107 9.13485853 1.05126659
Ag 9.22470170 11.22609241 2.99186999
Ag 11.23918426 9.09543126 3.08220731
Ag 11.25586706 11.02941459 0.98317675
Ag 9.24446321 9.11921460 5.07118302
Ag 9.19697803 11.15937094 7.12639999
Ag 11.28353671 9.17767938 7.14669505
Ag 11.22538911 11.17863791 5.07686202
Ag 9.09585304 9.14594258 9.23438218
Ag 9.13121401 11.18808104 11.30724535
Ag 11.21615336 9.15069693 11.27000357
Ag 11.19033641 11.10819981 9.26058202
108
Step=3100 Lattice="12.27 0 0  0 12.27 0  0 0 12.27" Properties=species:S:1:pos:R:3
Ag 0.99252974 0.99643831 0.84523407
Ag 1.03054655 3.04459042 3.07935607
Ag 2.90630617 1.04503447 2.99045655
Ag 3.02664646 2.94407881 0.96893382
Ag 0.78574301 1.05050448 5.21121847
Ag 0.85224173 3.10229192 7.21533854
Ag 2.98908882 1.03249055 7.21759577
Ag 3.14408635 3.05656681 5.16744545
Ag 0.93266695 1.01835343 9.25068165
Ag 0.97116097 3.09453809 11.17020934
Ag 3.11375715 1.04459491 11.15108473
Ag 3.14361585 3.14999348 9.13222435
Ag 1.09991551 4.96366298 0.90942283
Ag 1.10692562 7.07679618 3.02984307
Ag 3.03079466 4.88277145 3.03217794
Ag 3.10982459 7.00533866 1.02365175
Ag 0.99736330 5.09247914 5.10055152
Ag 1.10108271 7.17038603 7.18160692
Ag 3.04046514 5.05505971 7.15008682
Ag 2.97387589 7.09894229 5.11905812
Ag 1.13499927 5.16433486 9.23195571
Ag 1.22201000 7.09951020 11.22684724
Ag 3.12390573 5.01049577 11.29800918
Ag 3.10827623 7.21955550 9.18118329
Ag 1.15874318 9.22435457 0.95758572
Ag 0.94304683 11.35104132 2.99306970
Ag 2.97540562 9.23191851 3.16179710
Ag 3.12758256 11.27253815 1.00729794
Ag 1.05486823 9.21926760 5.12594654
Ag 1.07274168 11.34553303 7.17019833
Ag 3.05289666 9.31361123 7.11414427
Ag 2.93990000 11.39193011 5.04383629
Ag 1.04544823 9.19691180 9.19718711
Ag 1.04801064 11.19333734 11.19118501
Ag 3.10629364 9.27502336 11.17044467
Ag 3.15457988 11.30351441 9.24690384
Ag 5.14201137 0.99958105 0.92611491
Ag 5.13229720 2.94269462 3.01778982
Ag 7.22008485 1.00590659 3.07416032
Ag 7.17390456 3.04831877 1.11250202
Ag 5.20927477 1.10874258 5.20753951
Ag 5.38764158 3.09862167 7.20187354
Ag 7.31772490 1.00415807 7.15956422
Ag 7.30686563 3.02550069 5.08180578
Ag 5.22106377 1.09118168 9.18561394
Ag 5.15135322 3.09977685 11.24864570
Ag 7.16133031 1.03651649 11.29043559
Ag 7.23600422 3.11607034 9.25040881
Ag 5.14876366 5.03722075 1.06429019
Ag 5.11540424 7.09442660 3.17047606
Ag 7.24710507 4.95260997 3.12680924
Ag 7.02808900 7.07645238 1.20749061
Ag 5.07255371 5.05647189 5.12905357
Ag 5.08378530 7.12428195 7.05197327
Ag 7.14976687 5.26874312 7.09990471
Ag 7.22029562 7.14799998 5.05730764
Ag 5.10272445 5.12397239 9.15161527
Ag 4.98206343 7.21750230 11.21267017
Ag 7.08781357 5.20999701 11.33164593
Ag 7.10277538 7.28674264 9.15917644
Ag 5.02188391 9.30484189 0.99339940
Ag 5.04012226 11.30938696 3.08069921
Ag 7.15726379 9.21556146 3.04588275
Ag 7.05709562 11.28630671 1.02367764
Ag 5.04118529 9.26065633 5.00887236
Ag 5.17204988 11.35320004 7.09121497
Ag 7.06207840 9.16646269 7.01976119
Ag 7.24568653 11.20568543 5.03522372
Ag 5.08576847 9.31284739 9.06478962
Ag 5.06357313 11.30497840 11.26034225
Ag 7.03361539 9.18093722 11.33073711
Ag 7.17505312 11.21625902 9.11030906
Ag 9.16575931 1.03400913 0.98838744
Ag 9.30892325 3.04118948 3.06199579
Ag 11.21035646 1.02380027 2.84734633
Ag 11.25749117 3.14084727 1.03171769
Ag 9.25850387 0.91451383 5.03342424
Ag 9.25926677 3.16141727 7.24021251
Ag 11.18021695 0.97390551 7.26355306
Ag 11.20579525 3.19127850 5.08557124
Ag 9.20462691 1.06862893 9.35762525
Ag 9.06572807 3.20023018 11.42877258
Ag 11.11323282 1.01758254 11.31691332
Ag 11.18843084 3.17302349 9.28180207
Ag 9.21601440 5.18514228 1.10389460
Ag 9.25331084 7.08641690 3.03774110
Ag 11.31075350 5.11326642 2.98045105
Ag 11.37365441 7.23812384 0.98695866
Ag 9.26859775 5.14210310 5.16105306
Ag 9.20389316 7.14643328 7.17185508
Ag 11.32313745 5.21854637 7.29314737
Ag 11.26621403 7.16642734 5.12859445
Ag 9.17146939 5.15648565 9.30902291
Ag 9.11762603 7.20708718 11.31379639
Ag 11.14338044 5.15380095 11.37236656
Ag 11.27017704 7.11978032 9.31233077
Ag 9.14039619 9.12917023 1.05777760
Ag 9.22084326 11.22403852 2.98872734
Ag 11.24198646 9.09336472 3.07506174
Ag 11.26246643 11.03929080 0.98015162
Ag 9.25615995 9.12050517 5.06473376
Ag 9.19733123 11.15170086 7.13023095
Ag 11.29346716 9.17547493 7.14943946
Ag 11.22640372 11.17701978 5.09476398
Ag 9.09699326 9.12932072 9.24362236
Ag 9.12981363 11.18324643 11.30450030
Ag 11.21991890 9.15398650 11.27548074
Ag 11.18424170 11.10043750 9.25943034
108
Step=3200 Lattice="12.27 0 0  0 12.27 0  0 0 12.27" Properties=species:S:1:pos:R:3
Ag 0.99350724 1.01340443 0.84890342
Ag 1.01742863 3.03976697 3.07738791
Ag 2.90630660 1.04093659 2.98530182
Ag 3.02113568 2.95751940 0.97746222
Ag 0.79195943 1.05392501 5.20950410
Ag 0.85999424 3.09379663 7.20586823
Ag 2.98810536 1.03243936 7.23238947
Ag 3.15054010 3.05496397 5.15093028
Ag 0.94121702 1.01087967 9.25204234
Ag 0.96815252 3.08266344 11.16426817
Ag 3.11738042 1.03512800 11.15536029
Ag 3.14347479 3.12489029 9.13332300
Ag 1.09936299 4.97319940 0.91463648
Ag 1.12134291 7.07712688 3.03067194
Ag 3.03561872 4.88546660 3.03780683
Ag 3.11650235 7.00147031 1.03409983
Ag 0.98403406 5.09425261 5.09448770
Ag 1.09342743 7.16734489 7.17623998
Ag 3.03803212 5.06208653 7.14594824
Ag 2.98981087 7.09722708 5.11923258
Ag 1.12188473 5.17170656 9.22608718
Ag 1.21068166 7.10698629 11.22445652
Ag 3.11786835 5.00657400 11.28998133
Ag 3.11122224 7.21821723 9.18346741
Ag 1.15841173 9.22963476 0.95039789
Ag 0.94494241 11.34879506 2.99007873
Ag 2.97646538 9.23210078 3.16924710
Ag 3.11804388 11.27045825 1.01207181
Ag 1.03983640 9.22762285 5.12533610
Ag 1.07279084 11.34193565 7.16992496
Ag 3.05639819 9.30993818 7.11224387
Ag 2.92728825 11.39996515 5.04204660
Ag 1.05528124 9.18958059 9.20160581
Ag 1.03925459 11.19556732 11.18805883
Ag 3.11632284 9.26579362 11.17833505
Ag 3.15273407 11.30247148 9.23732111
Ag 5.14450850 1.00612321 0.92777383
Ag 5.13855910 2.94983802 3.03040861
Ag 7.22235072 1.00482862 3.08804431
Ag 7.17038091 3.05279004 1.10537608
Ag 5.20788531 1.11767637 5.19902021
Ag 5.37972703 3.09251460 7.21406748
Ag 7.32304265 1.00586725 7.15025289
Ag 7.28992599 3.02825895 5.07710923
Ag 5.21819540 1.08212631 9.19330040
Ag 5.15232468 3.09795624 11.24923026
Ag 7.16367995 1.03530386 11.29137416
Ag 7.22882728 3.11437923 9.26111025
Ag 5.14237150 5.04231890 1.06023933
Ag 5.10267068 7.08704691 3.17678285
Ag 7.23857037 4.95462521 3.12302681
Ag 7.02193139 7.08156996 1.20315346
Ag 5.08456562 5.06092225 5.12069745
Ag 5.08862699 7.12260729 7.05382729
Ag 7.14107941 5.25337287 7.09878771
Ag 7.21866121 7.15089751 5.04858601
Ag 5.10757790 5.12686528 9.15401704
Ag 4.98136315 7.22176294 11.21656754
Ag 7.08852216 5.20440461 11.32870254
Ag 7.10592763 7.29516018 9.14931872
Ag 5.02660887 9.29819154 1.00516838
Ag 5.04782283 11.30563252 3.08536112
Ag 7.15709036 9.21282730 3.04757043
Ag 7.05854655 11.28857514 1.02224551
Ag 5.03542083 9.26957380 5.01112942
Ag 5.16093203 11.33758749 7.09208672
Ag 7.06281001 9.16705090 7.02318666
Ag 7.24776714 11.21373871 5.03222905
Ag 5.09203812 9.31310332 9.06253559
Ag 5.06812981 11.30669883 11.26321051
Ag 7.03221953 9.17708659 11.31924138
Ag 7.17958418 11.22378428 9.11198666
Ag 9.16547377 1.03989783 0.99169702
Ag 9.29930503 3.05500243 3.06574100
Ag 11.20687575 1.01570081 2.84463625
Ag 11.25914710 3.13953862 1.03203584
Ag 9.26226676 0.91548516 5.04382089
Ag 9.27276676 3.17289923 7.23884609
Ag 11.17835631 0.97467002 7.25834143
Ag 11.21205941 3.18179440 5.08051479
Ag 9.19598202 1.06658916 9.34887718
Ag 9.07563830 3.20410716 11.42612726
Ag 11.11625155 1.01909714 11.30473981
Ag 11.18935367 3.16986440 9.29169447
Ag 9.21695297 5.18258522 1.10832082
Ag 9.25510710 7.09307168 3.03813786
Ag 11.31649432 5.12632150 2.98204181
Ag 11.37772520 7.22665668 0.99137493
Ag 9.25941783 5.15432454 5.15328444
Ag 9.20521106 7.14024937 7.17048661
Ag 11.30810034 5.21438241 7.28410654
Ag 11.25927653 7.17440850 5.12071067
Ag 9.17389894 5.15515400 9.31647492
Ag 9.12217914 7.21754289 11.30653388
Ag 11.13984029 5.15143283 11.37705703
Ag 11.27370996 7.12272173 9.31689833
Ag 9.15286714 9.12377935 1.06414839
Ag 9.21736831 11.22142525 2.98540867
Ag 11.24619521 9.09259319 3.06752884
Ag 11.26865600 11.05157231 0.97742266
Ag 9.26693163 9.12258968 5.05865900
Ag 9.19816102 11.14392309 7.13446082
Ag 11.30310496 9.17306946 7.15289532
Ag 11.22785699 11.17552148 5.11243506
Ag 9.09977413 9.11388052 9.25231204
Ag 9.12830812 11.17819924 11.30142413
Ag 11.22427430 9.15670437 11.27974585
Ag 11.17810600 11.09434144 9.25780835
108
Step=3300 Lattice="12.27 0 0  0 12.27 0  0 0 12.27" Properties=species:S:1:pos:R:3
Ag 0.99426530 1.03003933 0.85319272
Ag 1.00261181 3.03421171 3.07545385
Ag 2.90851764 1.03693337 2.98128897
Ag 3.01694338 2.97117652 0.98545394
Ag 0.79978364 1.05802284 5.20583369
Ag 0.86942838 3.08490326 7.19650601
Ag 2.98871372 1.03387679 7.24630826
Ag 3.15526009 3.05183098 5.13501547
Ag 0.94976386 1.00359209 9.25348972
Ag 0.96582627 3.07025779 11.15835672
Ag 3.12001371 1.02666974 11.16008176
Ag 3.14250788 3.09829092 9.13512734
Ag 1.09760958 4.98483074 0.92146462
Ag 1.13480932 7.07786489 3.03125504
Ag 3.04164782 4.89075642 3.04371935
Ag 3.12336738 6.99945005 1.04555096
Ag 0.97123436 5.09596812 5.08904467
Ag 1.08502176 7.16455429 7.17085631
Ag 3.03603230 5.06952549 7.14139226
Ag 3.00695123 7.09579189 5.11916937
Ag 1.10788100 5.17814703 9.22045183
Ag 1.19745820 7.11533140 11.22298533
Ag 3.11250186 5.00329626 11.28049156
Ag 3.11463541 7.21633162 9.18429713
Ag 1.15778270 9.23376530 0.94419345
Ag 0.94680345 11.34478273 2.98763249
Ag 2.97831505 9.23222129 3.17430281
Ag 3.10659258 11.26937928 1.01682447
Ag 1.02381676 9.23584673 5.12471834
Ag 1.07086817 11.33624055 7.17063910
Ag 3.06031174 9.30573499 7.11008810
Ag 2.91613003 11.40780444 5.04109991
Ag 1.06494653 9.18241423 9.20576793
Ag 1.03019299 11.19871047 11.18525568
Ag 3.12594407 9.25627631 11.18667507
Ag 3.14953426 11.30145357 9.22604465
Ag 5.14579535 1.01406191 0.93151113
Ag 5.14415897 2.95725995 3.04368338
Ag 7.22390173 1.00363556 3.10135030
Ag 7.16631493 3.05716205 1.09773926
Ag 5.20573097 1.12531771 5.18949733
Ag 5.36922300 3.08616909 7.22513725
Ag 7.32834983 1.00797073 7.14103305
Ag 7.27295874 3.03120171 5.07386524
Ag 5.21499348 1.07240167 9.20069745
Ag 5.15364072 3.09555303 11.24964402
Ag 7.16608760 1.03398795 11.29123369
Ag 7.22176483 3.11303355 9.27208921
Ag 5.13495110 5.04700617 1.05689411
Ag 5.08852691 7.07997762 3.18245383
Ag 7.22871980 4.95897232 3.11941316
Ag 7.01701344 7.08792035 1.19694633
Ag 5.09751832 5.06494581 5.11171167
Ag 5.09244537 7.12224797 7.05607839
Ag 7.13366943 5.23623565 7.09867289
Ag 7.21629452 7.15387600 5.03940528
Ag 5.11319937 5.13070256 9.15722780
Ag 4.98277686 7.22484893 11.22093405
Ag 7.08929176 5.19917171 11.32480800
Ag 7.10759505 7.30100407 9.14022366
Ag 5.03166398 9.28913873 1.01871836
Ag 5.05601000 11.30276763 3.09022807
Ag 7.15620670 9.21003578 3.04941206
Ag 7.06158407 11.28973472 1.02146154
Ag 5.03025108 9.27805246 5.01490121
Ag 5.14910992 11.32183659 7.09256064
Ag 7.06478672 9.16818654 7.02679381
Ag 7.24862696 11.22187337 5.03001137
Ag 5.09878658 9.31211621 9.06161446
Ag 5.07461549 11.30751733 11.26440139
Ag 7.03131452 9.17361108 11.30723679
Ag 7.18400599 11.23144654 9.11525961
Ag 9.16483986 1.04502504 0.99536626
Ag 9.28901136 3.06886653 3.06916155
Ag 11.20434338 1.00715471 2.84422815
Ag 11.26062868 3.13681219 1.03133531
Ag 9.26709381 0.91804825 5.05496271
Ag 9.28551052 3.18372960 7.23655716
Ag 11.17535090 0.97566015 7.25328076
Ag 11.21820698 3.17074314 5.07630626
Ag 9.18711743 1.06402734 9.33857793
Ag 9.08722966 3.20664274 11.42140145
Ag 11.12088185 1.02044742 11.29222681
Ag 11.19015765 3.16597004 9.30193259
Ag 9.21689679 5.17970335 1.11190787
Ag 9.25636505 7.10054858 3.03948754
Ag 11.32235726 5.14010030 2.98455819
Ag 11.38149771 7.21397097 0.99597456
Ag 9.25015829 5.16639934 5.14500699
Ag 9.20706778 7.13510165 7.16957306
Ag 11.29218792 5.20990723 7.27376573
Ag 11.25359417 7.18120917 5.11289033
Ag 9.17564914 5.15489070 9.32309945
Ag 9.12663249 7.22690933 11.29966210
Ag 11.13816861 5.14958638 11.38016936
Ag 11.27719585 7.12663799 9.32113092
Ag 9.16511530 9.11880778 1.07019857
Ag 9.21440240 11.21832152 2.98201688
Ag 11.25190369 9.09325874 3.05959553
Ag 11.27429013 11.06615049 0.97496343
Ag 9.27648866 9.12552949 5.05310417
Ag 9.19941958 11.13604024 7.13907449
Ag 11.31227149 9.17040310 7.15714078
Ag 11.22973424 11.17429068 5.12956612
Ag 9.10433160 9.10011203 9.26017941
Ag 9.12675326 11.17301515 11.29812946
Ag 11.22920792 9.15877887 11.28289278
Ag 11.17203031 11.08993528 9.25569672
108
Step=3400 Lattice="12.27 0 0  0 12.27 0  0 0 12.27" Properties=species:S:1:pos:R:3
Ag 0.99475722 1.04605406 0.85802927
Ag 0.98657451 3.02813767 3.07353109
Ag 2.91291162 1.03323118 2.97839678
Ag 3.01417233 2.98488043 0.99279450
Ag 0.80912553 1.06257780 5.20028738
Ag 0.88031482 3.07588270 7.18747618
Ag 2.99091910 1.03663587 7.25888179
Ag 3.15814723 3.04732433 5.12001367
Ag 0.95810418 0.99651736 9.25486759
Ag 0.96436010 3.05776203 11.15274305
Ag 3.12160421 1.01925985 11.16536203
Ag 3.14070448 3.07101471 9.13762978
Ag 1.09471330 4.99826537 0.92960913
Ag 1.14718238 7.07910374 3.03168795
Ag 3.04856389 4.89844009 3.04990509
Ag 3.13022706 6.99933676 1.05761071
Ag 0.95925581 5.09768186 5.08432445
Ag 1.07603766 7.16203082 7.16537695
Ag 3.03451760 5.07700692 7.13659197
Ag 3.02479112 7.09469385 5.11900790
Ag 1.09322483 5.18341467 9.21507688
Ag 1.18271156 7.12433776 11.22255141
Ag 3.10769099 5.00077279 11.26963933
Ag 3.11841744 7.21386275 9.18368819
Ag 1.15681308 9.23660702 0.93909617
Ag 0.94853458 11.33908332 2.98577536
Ag 2.98081543 9.23234164 3.17697331
Ag 3.09371049 11.26920779 1.02143406
Ag 1.00729280 9.24371922 5.12402553
Ag 1.06703339 11.32861702 7.17234613
Ag 3.06442303 9.30093576 7.10763768
Ag 2.90660497 11.41533038 5.04104224
Ag 1.07435725 9.17557717 9.20963766
Ag 1.02106954 11.20269318 11.18280277
Ag 3.13497682 9.24688392 11.19532815
Ag 3.14509856 11.30021243 9.21355020
Ag 5.14583822 1.02320569 0.93734797
Ag 5.14908417 2.96493365 3.05717568
Ag 7.22479882 1.00247144 3.11373121
Ag 7.16179664 3.06138075 1.08969335
Ag 5.20275237 1.13126007 5.17937414
Ag 5.35615917 3.07955715 7.23495088
Ag 7.33341406 1.01045474 7.13202735
Ag 7.25627429 3.03442078 5.07222330
Ag 5.21160752 1.06201853 9.20767579
Ag 5.15512571 3.09261399 11.24992478
Ag 7.16859393 1.03260899 11.29008784
Ag 7.21499153 3.11201209 9.28310380
Ag 5.12668600 5.05115743 1.05421642
Ag 5.07334561 7.07345995 3.18721938
Ag 7.21762795 4.96573014 3.11584994
Ag 7.01332496 7.09537034 1.18902034
Ag 5.11117034 5.06832563 5.10243781
Ag 5.09530974 7.12317084 7.05867106
Ag 7.12775557 5.21769260 7.09948622
Ag 7.21318991 7.15694426 5.03008195
Ag 5.11933043 5.13531025 9.16122114
Ag 4.98636525 7.22654162 11.22571983
Ag 7.09016029 5.19447052 11.32009762
Ag 7.10768045 7.30394552 9.13196765
Ag 5.03695732 9.27801339 1.03384447
Ag 5.06450455 11.30088451 3.09515019
Ag 7.15464332 9.20724492 3.05140431
Ag 7.06613844 11.28975744 1.02135044
Ag 5.02584415 9.28593348 5.02016352
Ag 5.13683284 11.30644137 7.09247592
Ag 7.06806883 9.16990711 7.03035090
Ag 7.24829280 11.22984403 5.02874812
Ag 5.10583837 9.30993520 9.06213100
Ag 5.08277868 11.30729622 11.26405601
Ag 7.03087483 9.17063767 11.29500399
Ag 7.18825304 11.23907744 9.11999578
Ag 9.16389740 1.04939827 0.99922802
Ag 9.27833959 3.08251465 3.07226481
Ag 11.20263957 0.99837233 2.84622306
Ag 11.26186892 3.13280369 1.02977767
Ag 9.27295863 0.92220115 5.06659300
Ag 9.29719453 3.19374305 7.23338814
Ag 11.17138507 0.97686468 7.24851138
Ag 11.22385515 3.15842426 5.07289090
Ag 9.17822806 1.06101167 9.32687061
Ag 9.10025154 3.20767751 11.41475613
Ag 11.12687156 1.02154286 11.27954733
Ag 11.19083290 3.16138992 9.31214195
Ag 9.21580515 5.17666911 1.11464772
Ag 9.25697789 7.10866863 3.04160967
Ag 11.32814611 5.15429148 2.98792583
Ag 11.38496489 7.20035201 1.00065059
Ag 9.24101264 5.17793937 5.13625762
Ag 9.20929534 7.13105013 7.16908791
Ag 11.27579300 5.20515009 7.26231800
Ag 11.24930667 7.18671584 5.10524981
Ag 9.17668537 5.15571794 9.32877036
Ag 9.13091786 7.23483899 11.29349486
Ag 11.13846489 5.14833318 11.38167216
Ag 11.28053600 7.13137818 9.32484558
Ag 9.17699014 9.11436795 1.07574733
Ag 9.21204360 11.21480942 2.97867080
Ag 11.25915555 9.09545440 3.05125605
Ag 11.27923879 11.08285328 0.97270739
Ag 9.28459080 9.12937426 5.04819116
Ag 9.20104081 11.12807337 7.14404400
Ag 11.32077467 9.16742144 7.16223944
Ag 11.23199709 11.17349761 5.14587666
Ag 9.11073332 9.08844668 9.26694467
Ag 9.12522033 11.16777485 11.29472450
Ag 11.23469597 9.16018769 11.28506386
Ag 11.16612126 11.08722605 9.25309852
108
Step=3500 Lattice="12.27 0 0  0 12.27 0  0 0 12.27" Properties=species:S:1:pos:R:3
Ag 0.99496196 1.06117465 0.86337081
Ag 0.96983094 3.02177479 3.07158318
Ag 2.91940215 1.03002257 2.97658560
Ag 3.01285682 2.99850470 0.99941210
Ag 0.81987180 1.06733979 5.19300466
Ag 0.89241753 3.06699670 7.17898113
Ag 2.99467028 1.04044647 7.26962173
Ag 3.15910305 3.04163786 5.10619498
Ag 0.96604373 0.98966770 9.25600421
Ag 0.96392853 3.04560434 11.14768355
Ag 3.12214004 1.01287143 11.17128799
Ag 3.13808297 3.04386977 9.14088241
Ag 1.09078774 5.01317667 0.93876900
Ag 1.15833539 7.08093820 3.03209485
Ag 3.05603118 4.90826637 3.05637073
Ag 3.13688859 7.00117408 1.06985287
Ag 0.94837268 5.09942239 5.08041532
Ag 1.06664612 7.15978037 7.15973963
Ag 3.03353328 5.08419662 7.13170774
Ag 3.04280817 7.09398799 5.11889326
Ag 1.07813645 5.18732516 9.20998333
Ag 1.16683892 7.13377939 11.22322647
Ag 3.10329929 4.99910277 11.25756697
Ag 3.12245803 7.21078161 9.18171501
Ag 1.15543887 9.23806189 0.93519917
Ag 0.95007473 11.33181680 2.98454949
Ag 2.98383633 9.23252939 3.17734251
Ag 3.07990690 11.26982885 1.02576542
Ag 0.99077133 9.25102456 5.12317182
Ag 1.06140779 11.31931162 7.17501793
Ag 3.06850646 9.29547540 7.10487351
Ag 2.89886103 11.42240158 5.04192281
Ag 1.08343883 9.16922914 9.21317747
Ag 1.01211412 11.20741712 11.18072496
Ag 3.14327336 9.23797597 11.20416613
Ag 3.13956625 11.29851760 9.20032734
Ag 5.14466215 1.03329025 0.94522641
Ag 5.15333179 2.97284291 3.07043676
Ag 7.22512966 1.00148174 3.12488014
Ag 7.15694428 3.06542167 1.08133352
Ag 5.19890460 1.13514235 5.16903656
Ag 5.34061261 3.07265576 7.24343491
Ag 7.33799929 1.01329470 7.12334674
Ag 7.24017831 3.03800988 5.07227800
Ag 5.20818023 1.05101575 9.21411300
Ag 5.15659705 3.08919715 11.25010329
Ag 7.17122076 1.03119726 11.28805488
Ag 7.20864250 3.11128249 9.29388439
Ag 5.11779103 5.05467276 1.05213984
Ag 5.05756026 7.06774688 3.19079731
Ag 7.20541424 4.97490921 3.11220941
Ag 7.01083389 7.10375670 1.17954578
Ag 5.12526111 5.07087244 5.09325038
Ag 5.09734209 7.12529584 7.06153976
Ag 7.12349679 5.19811400 7.10115020
Ag 7.20934457 7.16011456 5.02093884
Ag 5.12572796 5.14049904 9.16594015
Ag 4.99212478 7.22665471 11.23086858
Ag 7.09116272 5.19043252 11.31473415
Ag 7.10619495 7.30376991 9.12461389
Ag 5.04238019 9.26519096 1.05030895
Ag 5.07312961 11.30003732 3.09997760
Ag 7.15245012 9.20451190 3.05354679
Ag 7.07208176 11.28865405 1.02191405
Ag 5.02234039 9.29306666 5.02683034
Ag 5.12435984 11.29184882 7.09173030
Ag 7.07268710 9.17222712 7.03366944
Ag 7.24683206 11.23742987 5.02859676
Ag 5.11300778 9.30663890 9.06415266
Ag 5.09232788 11.30594937 11.26238085
Ag 7.03088197 9.16827091 11.28280686
Ag 7.19224743 11.24650555 9.12603276
Ag 9.16270430 1.05304077 1.00313839
Ag 9.26755641 3.09571567 3.07506732
Ag 11.20163157 0.98955695 2.85068621
Ag 11.26280170 3.12768537 1.02752323
Ag 9.27979045 0.92789508 5.07843665
Ag 9.30753031 3.20275856 7.22939384
Ag 11.16669258 0.97828060 7.24414937
Ag 11.22866362 3.14513505 5.07021685
Ag 9.16952378 1.05761944 9.31393010
Ag 9.11441854 3.20708657 11.40639483
Ag 11.13393616 1.02228269 11.26685403
Ag 11.19134698 3.15619454 9.32192913
Ag 9.21368009 5.17364006 1.11653710
Ag 9.25687565 7.11725232 3.04430098
Ag 11.33363521 5.16855498 2.99205864
Ag 11.38808816 7.18612401 1.00530270
Ag 9.23213957 5.18860715 5.12708907
Ag 9.21171719 7.12815211 7.16899180
Ag 11.25933829 5.20016708 7.24996801
Ag 11.24650409 7.19086987 5.09789761
Ag 9.17700115 5.15763414 9.33336626
Ag 9.13497956 7.24102203 11.28833587
Ag 11.14078803 5.14772144 11.38156435
Ag 11.28362565 7.13678766 9.32785240
Ag 9.18836784 9.11056078 1.08061805
Ag 9.21036177 11.21098050 2.97549914
Ag 11.26794283 9.09921895 3.04252721
Ag 11.28339452 11.10145170 0.97055525
Ag 9.29106120 9.13415225 5.04401500
Ag 9.20294412 11.12006539 7.14932810
Ag 11.32841595 9.16407879 7.16823431
Ag 11.23458130 11.17332517 5.16112859
Ag 9.11895300 9.07922135 9.27233518
Ag 9.12379385 11.16256200 11.29131084
Ag 11.24069803 9.16095773 11.28643237
Ag 11.16049117 11.08620699 9.25004092
108
Step=3600 Lattice="12.27 0 0  0 12.27 0  0 0 12.27" Properties=species:S:1:pos:R:3
Ag 0.99488515 1.07515522 0.86920134
Ag 0.95290212 3.01536103 3.06956363
Ag 2.92784984 1.02747456 2.97579930
Ag 3.01296529 3.01196142 1.00528105
Ag 0.83188758 1.07204614 5.18417307
Ag 0.90549791 3.05848181 7.17119382
Ag 2.99987099 1.04495947 7.27803572
Ag 3.15804751 3.03499281 5.09377560
Ag 0.97340469 0.98304496 9.25671806
Ag 0.96469009 3.03418341 11.14340784
Ag 3.12165080 1.00742026 11.17792093
Ag 3.13467646 3.01763133 9.14499521
Ag 1.08600385 5.02920940 0.94865359
Ag 1.16815624 7.08346157 3.03262227
Ag 3.06371473 4.91994265 3.06312744
Ag 3.14316295 7.00498787 1.08183763
Ag 0.93883448 5.10118592 5.07740509
Ag 1.05703058 7.15778981 7.15389913
Ag 3.03311168 5.09080420 7.12687374
Ag 3.06047652 7.09372638 5.11897926
Ag 1.06281731 5.18976090 9.20518561
Ag 1.15025127 7.14342537 11.22502206
Ag 3.09918331 4.99836945 11.24444869
Ag 3.12663920 7.20707549 9.17851279
Ag 1.15358447 9.23807760 0.93256545
Ag 0.95139651 11.32314385 2.98399499
Ag 2.98726607 9.23285652 3.17555995
Ag 3.06568242 11.27111837 1.02968072
Ag 0.97477445 9.25756081 5.12206642
Ag 1.05416138 11.30861585 7.17859765
Ag 3.07234120 9.28929394 7.10179944
Ag 2.89301247 11.42885706 5.04378499
Ag 1.09212926 9.16351948 9.21635644
Ag 1.00354092 11.21276060 11.17904851
Ag 3.15072594 9.22984172 11.21307732
Ag 3.13309120 11.29616724 9.18686603
Ag 5.14233991 1.04399927 0.95501877
Ag 5.15690513 2.98097598 3.08302503
Ag 7.22500399 1.00080982 3.13454043
Ag 7.15189835 3.06928696 1.07276129
Ag 5.19416099 1.13666415 5.15884260
Ag 5.32270907 3.06545684 7.25055014
Ag 7.34187269 1.01646101 7.11510167
Ag 7.22496448 3.04205503 5.07406689
Ag 5.20484004 1.03945358 9.21989678
Ag 5.15787013 3.08536870 11.25020994
Ag 7.17396766 1.02977343 11.28529117
Ag 7.20281709 3.11080223 9.30414506
Ag 5.10850675 5.05748076 1.05057378
Ag 5.04165555 7.06309254 3.19291433
Ag 7.19224068 4.98644934 3.10835277
Ag 7.00950029 7.11289125 1.16870328
Ag 5.13952139 5.07244056 5.08453596
Ag 5.09870675 7.12850306 7.06461181
Ag 7.12098740 5.17786382 7.10359126
Ag 7.20474586 7.16340181 5.01229337
Ag 5.13217971 5.14606959 9.17129738
Ag 4.99998131 7.22505175 11.23632486
Ag 7.09233294 5.18714795 11.30890143
Ag 7.10326844 7.30039447 9.11821455
Ag 5.04781463 9.25107210 1.06784716
Ag 5.08171861 11.30023872 3.10455958
Ag 7.14968430 9.20190782 3.05584147
Ag 7.07923924 11.28646828 1.02313201
Ag 5.01984869 9.29931379 5.03474913
Ag 5.11195132 11.27845053 7.09028326
Ag 7.07863818 9.17512944 7.03661501
Ag 7.24434981 11.24444253 5.02968736
Ag 5.12010668 9.30233345 9.06769871
Ag 5.10294761 11.30344436 11.25963017
Ag 7.03133285 9.16658661 11.27088600
Ag 7.19590864 11.25355688 9.13316806
Ag 9.16133369 1.05599543 1.00697078
Ag 9.25688924 3.10826291 3.07759099
Ag 11.20117389 0.98089696 2.85764559
Ag 11.26335460 3.12165727 1.02472055
Ag 9.28746829 0.93503762 5.09020759
Ag 9.31623425 3.21057886 7.22464740
Ag 11.16154680 0.97991157 7.24029136
Ag 11.23234990 3.13117003 5.06824139
Ag 9.16122147 1.05393656 9.29995674
Ag 9.12942203 3.20478881 11.39655287
Ag 11.14177458 1.02256070 11.25428914
Ag 11.19165558 3.15047301 9.33089474
Ag 9.21056439 5.17075308 1.11757735
Ag 9.25602404 7.12613320 3.04734743
Ag 11.33857982 5.18253395 2.99686693
Ag 11.39079466 7.17162834 1.00984119
Ag 9.22366215 5.19812330 5.11757073
Ag 9.21415697 7.12645373 7.16923189
Ag 11.24324880 5.19504412 7.23691457
Ag 11.24521688 7.19367528 5.09093027
Ag 9.17662138 5.16061190 9.33677459
Ag 9.13877302 7.24520646 11.28445593
Ag 11.14515090 5.14776985 11.37987302
Ag 11.28635875 7.14270578 9.32996372
Ag 9.19914956 9.10747413 1.08464388
Ag 9.20940250 11.20693211 2.97264998
Ag 11.27820091 9.10453451 3.03344349
Ag 11.28667831 11.12167025 0.96838601
Ag 9.29579586 9.13986163 5.04064210
Ag 9.20503002 11.11208373 7.15487209
Ag 11.33499811 9.16034210 7.17514069
Ag 11.23739734 11.17395729 5.17513115
Ag 9.12885628 9.07265002 9.27610735
Ag 9.12256864 11.15746155 11.28797354
Ag 11.24715460 9.16116125 11.28718393
Ag 11.15525780 11.08685983 9.24657577
108
Step=3700 Lattice="12.27 0 0  0 12.27 0  0 0 12.27" Properties=species:S:1:pos:R:3
Ag 0.99455794 1.08776489 0.87552513
Ag 0.93629181 3.00913726 3.06742462
Ag 2.93806967 1.02571944 2.97596815
Ag 3.01440611 3.02519371 1.01040081
Ag 0.84501802 1.07643937 5.17401620
Ag 0.91931731 3.05054319 7.16425250
Ag 3.00639238 1.04977118 7.28365176
Ag 3.15492492 3.02762873 5.08293083
Ag 0.98003281 0.97667104 9.25682450
Ag 0.96677318 3.02385528 11.14010761
Ag 3.12020485 1.00276956 11.18530210
Ag 3.13052789 2.99301622 9.15012215
Ag 1.08058403 5.04598523 0.95899159
Ag 1.17654648 7.08676217 3.03343147
Ag 3.07129266 4.93314242 3.07018917
Ag 3.14886624 7.01078080 1.09312230
Ag 0.93085994 5.10293470 5.07536882
Ag 1.04737990 7.15602734 7.14783192
Ag 3.03327173 5.09658646 7.12221135
Ag 3.07728149 7.09395684 5.11942822
Ag 1.04744379 5.19065297 9.20068557
Ag 1.13336317 7.15303672 11.22790722
Ag 3.09520477 4.99863774 11.23047875
Ag 3.13083873 7.20275095 9.17426597
Ag 1.15117316 9.23664985 0.93122909
Ag 0.95250391 11.31325987 2.98414894
Ag 2.99101722 9.23339759 3.17183060
Ag 3.05149228 11.27295169 1.03304952
Ag 0.95980886 9.26314504 5.12062788
Ag 1.04549505 11.29685557 7.18300425
Ag 3.07570169 9.28234213 7.09844334
Ag 2.88913899 11.43452146 5.04666262
Ag 1.10037835 9.15858578 9.21915140
Ag 0.99554122 11.21858063 11.17779666
Ag 3.15727165 9.22268795 11.22196723
Ag 3.12583670 11.29299843 9.17362817
Ag 5.13899627 1.05498783 0.96654676
Ag 5.15981117 2.98931822 3.09453163
Ag 7.22454687 1.00059204 3.14251443
Ag 7.14681443 3.07300816 1.06407698
Ag 5.18851738 1.13560286 5.14911139
Ag 5.30262253 3.05797512 7.25629246
Ag 7.34481070 1.01991826 7.10739931
Ag 7.21090483 3.04660191 5.07756951
Ag 5.20169338 1.02741448 9.22492365
Ag 5.15876425 3.08119973 11.25026046
Ag 7.17682069 1.02834997 11.28198164
Ag 7.19758951 3.11052001 9.31359334
Ag 5.09909076 5.05954202 1.04940845
Ag 5.02615660 7.05973859 3.19333075
Ag 7.17831152 5.00022211 3.10413304
Ag 7.00928878 7.12256733 1.15667821
Ag 5.15365417 5.07294339 5.07668931
Ag 5.09959935 7.13264195 7.06781083
Ag 7.12025630 5.15728787 7.10674522
Ag 7.19938089 7.16682150 5.00444869
Ag 5.13849642 5.15182269 9.17717584
Ag 5.00978701 7.22165889 11.24202177
Ag 7.09370559 5.18466579 11.30279732
Ag 7.09914350 7.29387205 9.11281168
Ag 5.05313963 9.23606791 1.08617194
Ag 5.09010258 11.30145794 3.10875917
Ag 7.14641956 9.19949961 3.05829236
Ag 7.08740248 11.28326913 1.02496333
Ag 5.01844574 9.30455137 5.04370110
Ag 5.09986217 11.26656864 7.08815004
Ag 7.08588062 9.17857956 7.03911432
Ag 7.24098311 11.25073266 5.03211514
Ag 5.12695202 9.29714878 9.07273241
Ag 5.11431175 11.29979888 11.25608849
Ag 7.03224605 9.16562659 11.25945407
Ag 7.19916459 11.26005609 9.14117367
Ag 9.15987078 1.05831083 1.01062032
Ag 9.24651395 3.11998443 3.07985879
Ag 11.20112849 0.97255602 2.86709089
Ag 11.26344421 3.11493802 1.02150003
Ag 9.29581893 0.94349695 5.10161734
Ag 9.32303697 3.21699430 7.21923856
Ag 11.15624984 0.98176590 7.23701986
Ag 11.23470219 3.11681894 5.06693415
Ag 9.15353601 1.05005618 9.28517020
Ag 9.14494166 3.20075388 11.38548609
Ag 11.15008401 1.02227188 11.24199117
Ag 11.19171687 3.14432954 9.33864704
Ag 9.20653711 5.16812038 1.11775814
Ag 9.25442183 7.13517225 3.05053600
Ag 11.34272845 5.19587013 3.00226458
Ag 11.39297592 7.15724485 1.01418976
Ag 9.21566934 5.20627072 5.10778846
Ag 9.21644617 7.12598601 7.16974109
Ag 11.22795303 5.18989490 7.22335454
Ag 11.24542233 7.19520218 5.08442393
Ag 9.17560020 5.16459635 9.33889616
Ag 9.14226431 7.24721906 11.28206762
Ag 11.15151672 5.14846283 11.37664968
Ag 11.28863361 7.14896135 9.33100368
Ag 9.20926521 9.10518201 1.08767414
Ag 9.20919388 11.20276395 2.97027598
Ag 11.28980400 9.11132705 3.02405718
Ag 11.28902612 11.14319941 0.96607042
Ag 9.29876740 9.14646443 5.03811024
Ag 9.20720281 11.10422216 7.16060804
Ag 11.34033234 9.15619504 7.18293873
Ag 11.24033526 11.17556573 5.18770647
Ag 9.14020298 9.06880808 9.27807277
Ag 9.12164656 11.15255844 11.28479485
Ag 11.25398477 9.16090934 11.28751710
Ag 11.15054367 11.08915635 9.24277892
108
Step=3800 Lattice="12.27 0 0  0 12.27 0  0 0 12.27" Properties=species:S:1:pos:R:3
Ag 0.99403389 1.09879712 0.88235962
Ag 0.92046750 3.00334416 3.06512410
Ag 2.94983909 1.02484867 2.97701227
Ag 3.01703253 3.03816624 1.01479076
Ag 0.85908972 1.08028329 5.16278236
Ag 0.93363888 3.04335019 7.15825800
Ag 3.01408368 1.05445508 7.28605320
Ag 3.14970523 3.01979534 5.07378366
Ag 0.98580411 0.97057692 9.25614336
Ag 0.97026153 3.01490735 11.13792933
Ag 3.11790395 0.99875466 11.19345263
Ag 3.12568814 2.97067471 9.15643475
Ag 1.07479183 5.06310865 0.96953653
Ag 1.18342139 7.09091892 3.03468950
Ag 3.07847164 4.94751272 3.07758179
Ag 3.15381758 7.01852445 1.10327097
Ag 0.92463223 5.10459866 5.07436365
Ag 1.03788344 7.15444464 7.14153125
Ag 3.03401953 5.10134784 7.11782834
Ag 3.09274630 7.09472126 5.12038835
Ag 1.03218553 5.18997735 9.19646143
Ag 1.11658381 7.16237325 11.23180957
Ag 3.09123948 4.99995396 11.21587861
Ag 3.13493256 7.19783524 9.16919017
Ag 1.14813787 9.23382286 0.93119683
Ag 0.95342193 11.30239065 2.98504272
Ag 2.99502774 9.23422770 3.16640422
Ag 3.03774973 11.27520839 1.03575764
Ag 0.94634079 9.26762389 5.11879769
Ag 1.03564566 11.28436716 7.18813606
Ag 3.07836843 9.27458794 7.09485631
Ag 2.88728542 11.43921078 5.05056971
Ag 1.10814594 9.15453520 9.22154885
Ag 0.98828337 11.22471621 11.17699470
Ag 3.16289331 9.21663535 11.23075775
Ag 3.11797182 11.28889441 9.16103003
Ag 5.13478867 1.06590527 0.97959141
Ag 5.16205911 2.99784440 3.10460743
Ag 7.22389046 1.00094530 3.14867332
Ag 7.14185546 3.07662180 1.05537862
Ag 5.18199616 1.13183104 5.14010961
Ag 5.28057340 3.05025348 7.26068510
Ag 7.34660455 1.02362433 7.10033170
Ag 7.19823881 3.05165049 5.08270739
Ag 5.19881741 1.01500320 9.22909819
Ag 5.15910952 3.07676282 11.25026400
Ag 7.17975629 1.02693342 11.27833106
Ag 7.19299622 3.11037754 9.32194214
Ag 5.08979473 5.06085255 1.04852064
Ag 5.01161288 7.05789903 3.19186733
Ag 7.16387078 5.01603798 3.09939884
Ag 7.01017842 7.13256755 1.14365803
Ag 5.16733940 5.07236636 5.07009693
Ag 5.10024207 7.13754128 7.07106012
Ag 7.12126982 5.13670673 7.11056098
Ag 7.19324503 7.17038679 4.99768696
Ag 5.14450557 5.15754778 9.18343145
Ag 5.02132171 7.21647376 11.24788217
Ag 7.09531745 5.18299359 11.29662597
Ag 7.09415383 7.28438158 9.10843654
Ag 5.05823634 9.22059095 1.10497651
Ag 5.09812295 11.30362072 3.11245740
Ag 7.14274645 9.19736431 3.06090539
Ag 7.09635011 11.27914275 1.02734095
Ag 5.01817757 9.30867251 5.05340743
Ag 5.08832652 11.25646363 7.08540574
Ag 7.09433482 9.18251529 7.04115743
Ag 7.23689307 11.25619488 5.03593351
Ag 5.13337215 9.29123237 9.07915778
Ag 5.12609393 11.29507352 11.25205520
Ag 7.03366533 9.16539483 11.24869331
Ag 7.20194009 11.26582896 9.14980263
Ag 9.15840913 1.06003523 1.01401093
Ag 9.23655424 3.13074379 3.08189037
Ag 11.20136004 0.96468784 2.87897232
Ag 11.26298681 3.10775556 1.01797136
Ag 9.30462245 0.95310630 5.11238925
Ag 9.32769254 3.22179185 7.21327104
Ag 11.15112117 0.98385436 7.23440748
Ag 11.23559016 3.10236107 5.06627686
Ag 9.14667036 1.04607604 9.26980068
Ag 9.16065887 3.19500607 11.37345993
Ag 11.15857324 1.02132553 11.23008493
Ag 11.19150684 3.13787895 9.34481555
Ag 9.20170068 5.16582748 1.11705416
Ag 9.25209858 7.14425185 3.05366542
Ag 11.34583657 5.20821624 3.00817393
Ag 11.39448820 7.14337386 1.01829598
Ag 9.20821220 5.21289619 5.09784325
Ag 9.21842730 7.12675987 7.17043752
Ag 11.21386510 5.18485347 7.20947986
Ag 11.24703431 7.19558436 5.07843573
Ag 9.17401825 5.16950402 9.33964982
Ag 9.14543120 7.24698231 11.28130280
Ag 11.15979822 5.14974808 11.37196545
Ag 11.29035914 7.15538284 9.33081824
Ag 9.21866714 9.10374449 1.08958075
Ag 9.20973216 11.19857506 2.96852789
Ag 11.30256369 9.11947012 3.01443634
Ag 11.29039771 11.16570904 0.96348555
Ag 9.30002223 9.15388420 5.03643031
Ag 9.20937407 11.09660208 7.16646343
Ag 11.34424677 9.15164183 7.19156637
Ag 11.24328124 11.17829622 5.19870777
Ag 9.15266482 9.06763193 9.27812368
Ag 9.12113267 11.14793661 11.28185073
Ag 11.26108472 9.16035213 11.28762017
Ag 11.14647452 11.09305918 9.23874818
108
Step=3900 Lattice="12.27 0 0  0 12.27 0  0 0 12.27" Properties=species:S:1:pos:R:3
Ag 0.99338377 1.10807818 0.88972793
Ag 0.90584599 2.99821948 3.06261779
Ag 2.96290587 1.02490999 2.97884570
Ag 3.02064810 3.05085525 1.01848774
Ag 0.87391180 1.08337567 5.15073467
Ag 0.94822948 3.03703362 7.15327348
Ag 3.02278776 1.05859959 7.28492203
Ag 3.14241271 3.01174542 5.06640286
Ag 0.99063051 0.96480518 9.25450766
Ag 0.97518085 3.00756965 11.13697105
Ag 3.11487624 0.99520260 11.20235858
Ag 3.12021541 2.95114999 9.16408463
Ag 1.06891984 5.08017448 0.98007049
Ag 1.18871118 7.09599648 3.03656738
Ag 3.08499409 4.96268383 3.08532109
Ag 3.15783751 7.02815033 1.11186553
Ag 0.92029527 5.10608019 5.07442536
Ag 1.02872853 7.15298069 7.13502153
Ag 3.03534987 5.10493904 7.11381654
Ag 3.10645459 7.09605339 5.12198975
Ag 1.01719952 5.18775369 9.19249776
Ag 1.10030884 7.17120208 11.23660856
Ag 3.08718324 5.00234735 11.20087970
Ag 3.13879644 7.19237587 9.16351011
Ag 1.14443110 9.22968824 0.93244960
Ag 0.95420000 11.29080530 2.98669831
Ag 2.99925797 9.23542028 3.15956489
Ag 3.02481548 11.27777398 1.03771466
Ag 0.93476973 9.27086246 5.11655159
Ag 1.02486610 11.27147496 7.19387311
Ag 3.08014132 9.26602377 7.09111013
Ag 2.88746177 11.44273805 5.05549890
Ag 1.11539900 9.15144023 9.22354720
Ag 0.98191372 11.23099297 11.17667867
Ag 3.16761577 9.21172308 11.23938552
Ag 3.10966915 11.28378196 9.14942889
Ag 5.12989675 1.07641489 0.99389885
Ag 5.16366015 3.00651243 3.11297059
Ag 7.22316513 1.00196292 3.15296533
Ag 7.13718389 3.08016913 1.04676105
Ag 5.17464896 1.12533146 5.13203748
Ag 5.25682528 3.04236051 7.26376967
Ag 7.34706536 1.02752974 7.09397048
Ag 7.18716307 3.05714604 5.08934505
Ag 5.19625415 1.00234544 9.23235061
Ag 5.15875438 3.07212908 11.25022372
Ag 7.18274522 1.02552678 11.27455677
Ag 7.18904780 3.11031141 9.32892311
Ag 5.08084995 5.06144689 1.04777987
Ag 4.99857532 7.05774506 3.18843138
Ag 7.14919483 5.03365702 3.09400025
Ag 7.01216889 7.14267513 1.12983221
Ag 5.18024369 5.07077425 5.06511448
Ag 5.10085310 7.14301934 7.07428615
Ag 7.12393686 5.11640815 7.11500220
Ag 7.18634782 7.17410522 4.99226407
Ag 5.15005407 5.16303277 9.18989715
Ag 5.03429927 7.20956861 11.25382489
Ag 7.09720824 5.18209705 11.29058965
Ag 7.08869270 7.27220949 9.10510819
Ag 5.06299297 9.20504834 1.12393601
Ag 5.10563623 11.30661133 3.11555532
Ag 7.13877206 9.19558123 3.06368849
Ag 7.10585344 11.27418528 1.03018816
Ag 5.01906264 9.31158857 5.06354179
Ag 5.07756879 11.24833201 7.08218823
Ag 7.10388755 9.18685070 7.04279483
Ag 7.23225569 11.26077177 5.04114842
Ag 5.13921203 9.28474090 9.08682155
Ag 5.13798229 11.28935933 11.24783201
Ag 7.03565963 9.16585561 11.23875531
Ag 7.20417189 11.27071052 9.15879555
Ag 9.15704650 1.06121906 1.01709460
Ag 9.22708565 3.14043808 3.08369788
Ag 11.20174009 0.95742468 2.89319893
Ag 11.26190317 3.10033805 1.01422436
Ag 9.31359596 0.96366800 5.12227084
Ag 9.32999140 3.22476983 7.20685983
Ag 11.14648609 0.98618790 7.23251854
Ag 11.23497311 3.08808278 5.06626023
Ag 9.14079683 1.04209462 9.25407944
Ag 9.17626919 3.18762466 11.36073951
Ag 11.16697400 1.01963681 11.21867954
Ag 11.19103300 3.13124139 9.34906410
Ag 9.19618047 5.16393276 1.11543401
Ag 9.24911004 7.15328080 3.05655527
Ag 11.34768049 5.21923072 3.01452770
Ag 11.39515555 7.13042219 1.02211968
Ag 9.20130048 5.21791006 5.08784898
Ag 9.21995645 7.12876091 7.17122469
Ag 11.20136640 5.18006097 7.19546850
Ag 11.24990643 7.19501083 5.07301372
Ag 9.17197947 5.17522244 9.33897658
Ag 9.14826545 7.24452287 11.28219835
Ag 11.16985943 5.15153720 11.36590656
Ag 11.29146125 7.16180622 9.32928537
Ag 9.22731868 9.10320803 1.09026404
Ag 9.21099414 11.19446125 2.96754835
Ag 11.31622992 9.12879079 3.00466161
Ag 11.29077683 11.18886102 0.96052920
Ag 9.29967198 9.16200788 5.03558918
Ag 9.21146481 11.08937287 7.17234905
Ag 11.34659599 9.14671024 7.20091391
Ag 11.24611043 11.18225492 5.20802399
Ag 9.16585331 9.06893311 9.27625156
Ag 9.12113118 11.14367830 11.27920535
Ag 11.26832055 9.15965458 11.28765843
Ag 11.14317666 11.09852147 9.23459984
108
Step=4000 Lattice="12.27 0 0  0 12.27 0  0 0 12.27" Properties=species:S:1:pos:R:3
Ag 0.99268892 1.11547244 0.89765172
Ag 0.89278285 2.99399043 3.05987321
Ag 2.97699494 1.02590739 2.98138073
Ag 3.02503812 3.06323972 1.02154754
Ag 0.88927687 1.08555619 5.13814268
Ag 0.96286197 3.03168425 7.14931935
Ag 3.03232966 1.06185543 7.28008378
Ag 3.13312929 3.00372957 5.06080364
Ag 0.99446401 0.95941244 9.25177307
Ag 0.98148868 3.00201729 11.13728349
Ag 3.11126828 0.99193992 11.21198720
Ag 3.11417557 2.93484164 9.17316079
Ag 1.06327536 5.09677812 0.99041484
Ag 1.19236301 7.10204707 3.03921922
Ag 3.09061997 4.97828219 3.09341230
Ag 3.16074804 7.03954118 1.11851918
Ag 0.91795110 5.10726173 5.07556851
Ag 1.02009736 7.15156689 7.12836043
Ag 3.03725036 5.10725482 7.11024557
Ag 3.11804622 7.09797629 5.12432760
Ag 1.00262999 5.18403972 9.18877087
Ag 1.08491268 7.17929441 11.24214676
Ag 3.08295460 5.00583281 11.18569825
Ag 3.14230718 7.18643014 9.15745701
Ag 1.14003340 9.22438205 0.93494364
Ag 0.95491743 11.27880406 2.98912410
Ag 3.00368447 9.23704475 3.15162108
Ag 3.01298068 11.28053936 1.03886010
Ag 0.92542892 9.27276029 5.11390699
Ag 1.01341471 11.25847821 7.20007832
Ag 3.08084963 9.25667349 7.08729312
Ag 2.88964310 11.44491836 5.06141511
Ag 1.12210788 9.14932533 9.22515893
Ag 0.97655725 11.23722922 11.17688413
Ag 3.17149774 9.20792019 11.24779984
Ag 3.10110345 11.27765143 9.13911433
Ag 5.12451447 1.08621745 1.00918120
Ag 5.16462857 3.01526059 3.11943505
Ag 7.22249084 1.00371286 3.15539822
Ag 7.13295418 3.08369853 1.03831398
Ag 5.16655762 1.11620627 5.12504049
Ag 5.23168080 3.03438888 7.26559867
Ag 7.34602861 1.03157729 7.08838041
Ag 7.17782353 3.06297703 5.09729198
Ag 5.19400705 0.98957784 9.23462877
Ag 5.15757311 3.06737387 11.25013679
Ag 7.18575563 1.02413187 11.27085951
Ag 7.18573449 3.11025498 9.33429995
Ag 5.07245569 5.06140038 1.04705466
Ag 4.98756602 7.05939201 3.18303840
Ag 7.13458017 5.05280140 3.08779775
Ag 7.01528256 7.15268774 1.11539377
Ag 5.19202718 5.06831023 5.06205480
Ag 5.10164170 7.14890049 7.07742200
Ag 7.12811556 5.09663619 7.12004718
Ag 7.17871836 7.17797552 4.98840502
Ag 5.15500355 5.16805250 9.19638836
Ag 5.04838269 7.20107963 11.25976641
Ag 7.09942087 5.18189938 11.28488043
Ag 7.08317869 7.25772741 9.10283201
Ag 5.06731050 9.18982461 1.14270811
Ag 5.11251801 11.31027648 3.11797392
Ag 7.13461885 9.19422389 3.06665171
Ag 7.11567963 11.26849736 1.03342309
Ag 5.02109528 9.31323107 5.07374849
Ag 5.06779256 11.24230152 7.07868232
Ag 7.11437465 9.19147965 7.04413012
Ag 7.22725234 11.26446225 5.04771492
Ag 5.14433714 9.27783025 9.09552037
Ag 5.14967809 11.28276875 11.24371340
Ag 7.03831982 9.16693389 11.22976235
Ag 7.20581603 11.27455137 9.16788747
Ag 9.15588029 1.06191284 1.01984872
Ag 9.21814077 3.14899457 3.08528248
Ag 11.20215260 0.95086604 2.90963640
Ag 11.26012473 3.09290516 1.01033204
Ag 9.32240374 0.97495669 5.13102977
Ag 9.32977823 3.22575683 7.20012820
Ag 11.14266389 0.98877570 7.23140697
Ag 11.23290483 3.07426926 5.06687888
Ag 9.13606057 1.03820634 9.23825144
Ag 9.19147108 3.17874059 11.34758081
Ag 11.17505030 1.01714876 11.20788195
Ag 11.19034371 3.12453650 9.35110245
Ag 9.19012645 5.16246818 1.11286610
Ag 9.24553012 7.16218572 3.05905325
Ag 11.34807082 5.22859804 3.02126761
Ag 11.39477639 7.11879285 1.02563173
Ag 9.19493615 5.22128382 5.07792946
Ag 9.22092318 7.13194476 7.17199262
Ag 11.19077387 5.17564793 7.18148266
Ag 11.25384016 7.19371253 5.06818973
Ag 9.16960542 5.18161080 9.33684274
Ag 9.15077591 7.23996859 11.28469375
Ag 11.18151588 5.15370946 11.35857087
Ag 11.29188876 7.16807430 9.32632487
Ag 9.23519928 9.10360641 1.08965751
Ag 9.21294185 11.19051312 2.96746580
Ag 11.33049420 9.13908089 2.99482304
Ag 11.29017005 11.21232016 0.95713297
Ag 9.29788075 9.17069106 5.03555352
Ag 9.21341102 11.08271159 7.17815975
Ag 11.34727055 9.14145365 7.21082132
Ag 11.24870420 11.18749646 5.21557918
Ag 9.17935056 9.07242389 9.27255421
Ag 9.12174109 11.13986365 11.27690899
Ag 11.27553704 9.15898737 11.28776485
Ag 11.14077305 11.10548521 9.23046384
108
Step=4100 Lattice="12.27 0 0  0 12.27 0  0 0 12.27" Properties=species:S:1:pos:R:3
Ag 0.99203377 1.12088735 0.90614515
Ag 0.88156526 2.99086432 3.05687479
Ag 2.99181390 1.02780378 2.98453240
Ag 3.02997247 3.07530297 1.02403200
Ag 0.90496259 1.08670897 5.12527514
Ag 0.97731814 3.02735283 7.14638570
Ag 3.04251268 1.06395427 7.27154352
Ag 3.12199938 2.99599271 5.05695000
Ag 0.99729883 0.95447010 9.24782790
Ag 0.98906900 2.99835384 11.13887572
Ag 3.10723693 0.98880516 11.22227637
Ag 3.10764362 2.92197818 9.18365114
Ag 1.05816375 5.11253052 1.00042648
Ag 1.19434352 7.10908957 3.04276735
Ag 3.09515219 4.99394700 3.10184703
Ag 3.16237527 7.05252462 1.12289274
Ag 0.91765775 5.10801534 5.07776494
Ag 1.01216291 7.15013303 7.12162728
Ag 3.03970845 5.10823861 7.10717567
Ag 3.12726313 7.10049978 5.12743472
Ag 0.98860853 5.17892573 9.18524461
Ag 1.07074104 7.18643921 11.24823452
Ag 3.07849561 5.01041414 11.17056324
Ag 3.14534441 7.18007497 9.15126134
Ag 1.13495917 9.21808017 0.93861066
Ag 0.95567417 11.26671503 2.99231111
Ag 3.00829223 9.23916404 3.14289633
Ag 3.00246549 11.28339903 1.03916804
Ag 0.91856396 9.27326057 5.11091982
Ag 1.00154787 11.24564286 7.20659789
Ag 3.08036198 9.24659839 7.08350508
Ag 2.89376887 11.44557313 5.06825101
Ag 1.12824201 9.14817208 9.22641217
Ag 0.97231020 11.24324146 11.17764218
Ag 3.17462058 9.20514042 11.25596543
Ag 3.09245092 11.27055146 9.13030454
Ag 5.11883632 1.09505031 1.02513004
Ag 5.16498361 3.02400968 3.12392278
Ag 7.22196949 1.00624242 3.15604407
Ag 7.12930604 3.08724224 1.03011982
Ag 5.15783342 1.10467777 5.11919984
Ag 5.20547679 3.02646793 7.26623022
Ag 7.34335788 1.03570203 7.08361170
Ag 7.17031061 3.06898495 5.10630624
Ag 5.19204085 0.97686015 9.23589861
Ag 5.15547283 3.06256152 11.24999469
Ag 7.18875484 1.02274960 11.26741939
Ag 7.18302917 3.11014009 9.33788062
Ag 5.06477124 5.06082962 1.04621859
Ag 4.97904215 7.06288931 3.17582417
Ag 7.12032722 5.07317369 3.08067469
Ag 7.01956222 7.16241142 1.10054153
Ag 5.20235553 5.06518517 5.06116709
Ag 5.10280101 7.15500611 7.08041070
Ag 7.13362238 5.07762703 7.12568670
Ag 7.17040985 7.18198479 4.98629954
Ag 5.15922863 5.17235931 9.20270969
Ag 5.06319859 7.19121085 11.26563050
Ag 7.10200096 5.18228083 11.27967192
Ag 7.07802500 7.24137045 9.10159882
Ag 5.07110951 9.17530281 1.16093319
Ag 5.11867020 11.31443076 3.11965290
Ag 7.13042261 9.19334992 3.06980717
Ag 7.12561604 11.26218060 1.03695803
Ag 5.02424827 9.31355445 5.08366483
Ag 5.05917253 11.23842132 7.07510847
Ag 7.12559243 9.19626477 7.04530940
Ag 7.22206086 11.26730214 5.05553647
Ag 5.14863624 9.27064535 9.10501231
Ag 5.16089576 11.27544371 11.23997939
Ag 7.04175245 9.16851816 11.22180978
Ag 7.20685323 11.27720972 9.17681499
Ag 9.15500298 1.06216559 1.02227232
Ag 9.20971130 3.15636672 3.08663181
Ag 11.20249986 0.94509217 2.92810428
Ag 11.25760885 3.08566025 1.00635517
Ag 9.33066571 0.98672179 5.13847788
Ag 9.32697191 3.22463168 7.19320467
Ag 11.13995567 0.99162362 7.23111015
Ag 11.22953412 3.06120298 5.06812732
Ag 9.13257191 1.03449463 9.22256187
Ag 9.20597972 3.16852991 11.33422305
Ag 11.18260528 1.01385471 11.19778240
Ag 11.18953093 3.11787768 9.35069593
Ag 9.18369972 5.16144036 1.10932617
Ag 9.24143701 7.17091569 3.06104018
Ag 11.34686436 5.23604068 3.02833995
Ag 11.39313491 7.10885679 1.02882021
Ag 9.18910352 5.22304617 5.06821516
Ag 9.22124419 7.13623384 7.17262006
Ag 11.18231337 5.17171494 7.16766872
Ag 11.25859657 7.19194580 5.06398040
Ag 9.16702695 5.18850186 9.33324194
Ag 9.15299154 7.23353422 11.28864032
Ag 11.19454035 5.15611866 11.35006639
Ag 11.29161555 7.17402708 9.32190694
Ag 9.24230196 9.10496194 1.08773087
Ag 9.21552573 11.18680907 2.96838886
Ag 11.34499437 9.15010878 2.98501836
Ag 11.28860271 11.23576225 0.95327298
Ag 9.29485030 9.17976565 5.03627381
Ag 9.21516853 11.07682148 7.18378111
Ag 11.34620557 9.13595165 7.22107901
Ag 11.25096208 11.19401510 5.22133128
Ag 9.19273711 9.07774951 9.26723016
Ag 9.12305158 11.13657029 11.27499575
Ag 11.28256857 9.15852170 11.28803383
Ag 11.13937788 11.11387814 9.22647781
108
Step=4200 Lattice="12.27 0 0  0 12.27 0  0 0 12.27" Properties=species:S:1:pos:R:3
Ag 0.99149336 1.12427767 0.91521057
Ag 0.87240829 2.98903800 3.05362555
Ag 3.00705706 1.03052574 2.98822280
Ag 3.03519924 3.08702140 1.02599923
Ag 0.92073435 1.08675991 5.11239373
Ag 0.99139165 3.02405146 7.14444424
Ag 3.05311660 1.06472183 7.25950241
Ag 3.10923158 2.98877254 5.05475878
Ag 0.99917127 0.95006249 9.24260258
Ag 0.99773498 2.99661025 11.14172461
Ag 3.10294182 0.98565926 11.23312924
Ag 3.10070595 2.91260733 9.19542083
Ag 1.05386906 5.12708324 1.00999523
Ag 1.19464153 7.11710585 3.04729892
Ag 3.09842829 5.00934891 3.11059844
Ag 3.16255586 7.06687053 1.12471329
Ag 0.91942779 5.10821772 5.08094823
Ag 1.00508413 7.14861338 7.11492099
Ag 3.04269695 5.10787829 7.10466338
Ag 3.13394769 7.10361792 5.13127935
Ag 0.97524978 5.17252926 9.18186981
Ag 1.05810292 7.19245080 11.25466445
Ag 3.07376818 5.01608721 11.15572094
Ag 3.14779288 7.17340602 9.14513701
Ag 1.12925975 9.21098957 0.94335725
Ag 0.95658981 11.25489033 2.99623406
Ag 3.01306702 9.24183185 3.13372050
Ag 2.99343818 11.28624873 1.03865028
Ag 0.91432481 9.27235626 5.10767622
Ag 0.98951226 11.23318832 7.21326129
Ag 3.07858856 9.23590098 7.07985189
Ag 2.89974194 11.44453327 5.07590421
Ag 1.13376542 9.14791851 9.22735136
Ag 0.96925576 11.24884448 11.17897519
Ag 3.17707594 9.20325119 11.26385664
Ag 3.08388839 11.26258214 9.12314376
Ag 5.11306763 1.10269059 1.04142002
Ag 5.16475205 3.03267118 3.12646551
Ag 7.22167926 1.00956683 3.15503219
Ag 7.12635645 3.09081921 1.02225154
Ag 5.14861520 1.09107985 5.11453536
Ag 5.17857912 3.01874966 7.26572508
Ag 7.33894739 1.03983159 7.07970192
Ag 7.16465776 3.07495708 5.11610031
Ag 5.19028511 0.96436755 9.23614559
Ag 5.15239913 3.05774416 11.24978389
Ag 7.19170972 1.02137304 11.26438288
Ag 7.18088941 3.10989816 9.33952720
Ag 5.05790804 5.05989036 1.04515572
Ag 4.97335859 7.06821374 3.16704286
Ag 7.10672213 5.09446566 3.07255254
Ag 7.02506468 7.17168673 1.08548212
Ag 5.21091757 5.06165797 5.06261384
Ag 5.10449974 7.16116235 7.08320845
Ag 7.14024650 5.05961725 7.13192000
Ag 7.16150258 7.18610610 4.98609756
Ag 5.16261989 5.17569767 9.20866265
Ag 5.07833837 7.18022635 11.27133562
Ag 7.10499577 5.18307901 11.27511135
Ag 7.07361521 7.22361802 9.10138500
Ag 5.07433817 9.16187138 1.17823466
Ag 5.12402726 11.31886337 3.12054871
Ag 7.12632946 9.19301559 3.07316858
Ag 7.13546686 11.25533596 1.04070315
Ag 5.02847413 9.31253989 5.09295004
Ag 5.05185174 11.23665051 7.07170943
Ag 7.13730575 9.20105333 7.04650879
Ag 7.21684817 11.26936387 5.06446744
Ag 5.15202029 9.26331114 9.11503135
Ag 5.17137956 11.26754194 11.23688986
Ag 7.04607116 9.17046568 11.21496378
Ag 7.20729234 11.27856723 9.18532374
Ag 9.15449799 1.06202380 1.02438167
Ag 9.20177688 3.16253012 3.08772493
Ag 11.20270803 0.94016236 2.94837312
Ag 11.25433187 3.07878372 1.00234713
Ag 9.33796760 0.99868971 5.14449362
Ag 9.32158346 3.22133996 7.18621982
Ag 11.13863182 0.99473334 7.23163924
Ag 11.22509970 3.04916312 5.07000230
Ag 9.13039399 1.03101961 9.20724435
Ag 9.21953494 3.15720474 11.32088200
Ag 11.18948570 1.00979695 11.18844262
Ag 11.18872561 3.11136696 9.34767287
Ag 9.17706771 5.16083195 1.10480480
Ag 9.23692384 7.17943784 3.06243274
Ag 11.34397307 5.24133044 3.03568897
Ag 11.39001734 7.10092837 1.03169484
Ag 9.18376976 5.22327744 5.05883971
Ag 9.22086327 7.14151599 7.17297754
Ag 11.17610139 5.16831566 7.15415387
Ag 11.26391013 7.18997473 5.06038833
Ag 9.16439710 5.19570501 9.32819603
Ag 9.15496368 7.22549944 11.29381851
Ag 11.20868879 5.15860206 11.34051199
Ag 11.29063764 7.17951867 9.31605864
Ag 9.24863048 9.10728675 1.08448614
Ag 9.21868709 11.18341699 2.97040137
Ag 11.35932092 9.16161062 2.97535332
Ag 11.28611078 11.25887925 0.94897731
Ag 9.29080536 9.18904872 5.03768837
Ag 9.21672319 11.07192908 7.18909224
Ag 11.34338782 9.13030951 7.23143735
Ag 11.25280871 11.20174051 5.22527060
Ag 9.20561346 9.08452170 9.26056286
Ag 9.12513741 11.13387329 11.27347668
Ag 11.28924215 9.15841981 11.28851797
Ag 11.13909002 11.12360909 9.22278021
108
Step=4300 Lattice="12.27 0 0  0 12.27 0  0 0 12.27" Properties=species:S:1:pos:R:3
Ag 0.99113663 1.12564806 0.92483620
Ag 0.86545453 2.98867957 3.05014070
Ag 3.02240883 1.03396996 2.99239179
Ag 3.04046444 3.09835281 1.02750768
Ag 0.93634977 1.08567002 5.09974633
Ag 1.00489092 3.02175614 7.14344085
Ag 3.06388937 1.06407950 7.24434879
Ag 3.09509512 2.98229938 5.05410514
Ag 1.00015756 0.94628278 9.23607776
Ag 1.00724180 2.99674740 11.14578671
Ag 3.09853878 0.98239389 11.24442148
Ag 3.09346239 2.90660931 9.20821868
Ag 1.05063278 5.14013620 1.01904765
Ag 1.19327026 7.12603918 3.05286581
Ag 3.10033879 5.02420837 3.11961768
Ag 3.16114755 7.08229392 1.12379373
Ag 0.92322750 5.10776121 5.08501496
Ag 0.99898816 7.14695237 7.10836983
Ag 3.04618311 5.10619703 7.10275717
Ag 3.13805493 7.10730711 5.13576081
Ag 0.96266873 5.16499035 9.17857628
Ag 1.04726221 7.19717567 11.26120477
Ag 3.06874657 5.02284234 11.14141793
Ag 3.14954559 7.16652832 9.13927364
Ag 1.12302329 9.20333505 0.94906879
Ag 0.95780224 11.24369205 3.00085264
Ag 3.01798885 9.24508948 3.12442163
Ag 2.98600990 11.28898333 1.03735758
Ag 0.91276555 9.27009283 5.10430915
Ag 0.97753424 11.22128598 7.21988178
Ag 3.07549121 9.22472549 7.07643544
Ag 2.90742715 11.44164118 5.08423601
Ag 1.13863269 9.14846092 9.22803654
Ag 0.96746163 11.25387603 11.18089281
Ag 3.17895420 9.20210720 11.27144486
Ag 3.07558670 11.25388785 9.11769816
Ag 5.10742308 1.10896361 1.05771067
Ag 5.16397066 3.04116798 3.12719647
Ag 7.22167100 1.01366767 3.15253783
Ag 7.12418080 3.09443362 1.01477110
Ag 5.13906702 1.07584103 5.11100484
Ag 5.15137755 3.01140322 7.26414588
Ag 7.33272321 1.04388668 7.07668011
Ag 7.16084217 3.08065076 5.12635797
Ag 5.18864135 0.95228120 9.23537626
Ag 5.14833959 3.05296572 11.24948695
Ag 7.19458610 1.02000398 11.26187334
Ag 7.17925922 3.10946092 9.33916263
Ag 5.05192851 5.05877219 1.04376500
Ag 4.97073516 7.07526636 3.15704910
Ag 7.09401967 5.11635605 3.06339845
Ag 7.03185036 7.18038237 1.07043107
Ag 5.21745487 5.05800977 5.06646886
Ag 5.10687491 7.16720657 7.08578778
Ag 7.14774651 5.04283897 7.13874858
Ag 7.15210552 7.19029691 4.98790458
Ag 5.16506599 5.17781094 9.21406231
Ag 5.09338237 7.16843167 11.27679254
Ag 7.10845526 5.18409081 11.27131252
Ag 7.07028554 7.20497708 9.10215364
Ag 5.07698086 9.14990293 1.19422000
Ag 5.12854308 11.32334564 3.12063273
Ag 7.12249165 9.19326534 3.07675007
Ag 7.14505844 11.24806355 1.04456990
Ag 5.03370500 9.31019979 5.10130854
Ag 5.04594182 11.23687141 7.06873640
Ag 7.14926635 9.20568528 7.04792193
Ag 7.21176453 11.27075144 5.07431885
Ag 5.15441975 9.25592602 9.12530308
Ag 5.18088953 11.25923224 11.23467913
Ag 7.05138674 9.17261016 11.20926331
Ag 7.20717122 11.27853629 9.19317593
Ag 9.15443518 1.06153093 1.02620598
Ag 9.19430618 3.16747875 3.08852783
Ag 11.20273187 0.93611451 2.97016240
Ag 11.25029397 3.07242827 0.99835848
Ag 9.34387508 1.01056701 5.14901539
Ag 9.31372740 3.21590251 7.17930340
Ag 11.13891974 0.99810210 7.23296711
Ag 11.21991863 3.03841527 5.07248231
Ag 9.12953772 1.02783054 9.19252075
Ag 9.23191200 3.14500286 11.30774384
Ag 11.19558386 1.00507230 11.17990958
Ag 11.18808610 3.10509134 9.34192986
Ag 9.17039938 5.16060267 1.09931416
Ag 9.23208380 7.18773236 3.06318377
Ag 11.33936083 5.24429864 3.04324991
Ag 11.38523277 7.09524032 1.03428719
Ag 9.17888776 5.22210273 5.04993661
Ag 9.21975029 7.14764542 7.17293116
Ag 11.17213713 5.16544696 7.14104378
Ag 11.26950292 7.18805407 5.05740315
Ag 9.16188086 5.20301050 9.32175514
Ag 9.15676694 7.21618412 11.29995807
Ag 11.22370104 5.16099036 11.33003991
Ag 11.28899114 7.18440148 9.30886727
Ag 9.25419642 9.11058402 1.07995945
Ag 9.22235982 11.18040502 2.97355842
Ag 11.37302517 9.17330885 2.96594411
Ag 11.28275680 11.28138434 0.94432951
Ag 9.28598073 9.19835986 5.03972724
Ag 9.21809229 11.06827944 7.19396942
Ag 11.33886059 9.12465640 7.24161187
Ag 11.25421488 11.21053897 5.22741859
Ag 9.21761721 9.09234922 9.25289929
Ag 9.12805767 11.13184511 11.27233794
Ag 11.29539082 9.15882593 11.28922785
Ag 11.13998563 11.13456237 9.21950316
108
Step=4400 Lattice="12.27 0 0  0 12.27 0  0 0 12.27" Properties=species:S:1:pos:R:3
Ag 0.99102286 1.12505383 0.93499608
Ag 0.86077685 2.98991836 3.04646257
Ag 3.03755573 1.03801079 2.99699236
Ag 3.04552997 3.10922407 1.02861480
Ag 0.95156514 1.08342648 5.08755455
Ag 1.01764134 3.02041049 7.14331114
Ag 3.07454022 1.06202394 7.22662608
Ag 3.07991151 2.97679628 5.05482873
Ag 1.00037016 0.94322707 9.22828989
Ag 1.01728190 2.99866232 11.15101056
Ag 3.09416915 0.97893747 11.25601555
Ag 3.08601911 2.90372988 9.22168212
Ag 1.04863301 5.15144269 1.02755138
Ag 1.19026875 7.13579111 3.05946935
Ag 3.10084299 5.03831024 3.12883203
Ag 3.15804314 7.09846327 1.12005015
Ag 0.92897663 5.10655577 5.08982763
Ag 0.99397349 7.14510882 7.10211850
Ag 3.05013848 5.10324610 7.10149881
Ag 3.13964843 7.11152474 5.14070096
Ag 0.95097339 5.15646706 9.17527603
Ag 1.03842895 7.20049905 11.26761132
Ag 3.06343362 5.03066561 11.12789943
Ag 3.15050749 7.15955268 9.13383068
Ag 1.11637154 9.19536918 0.95560716
Ag 0.95946454 11.23349391 3.00609796
Ag 3.02302769 9.24896211 3.11531783
Ag 2.98023900 11.29149528 1.03537920
Ag 0.91385031 9.26656687 5.10097748
Ag 0.96583465 11.21008685 7.22625798
Ag 3.07109031 9.21325481 7.07335095
Ag 2.91665040 11.43675196 5.09307220
Ag 1.14278578 9.14965817 9.22854138
Ag 0.96697538 11.25819751 11.18338904
Ag 3.18033525 9.20156067 11.27871109
Ag 3.06769998 11.24464814 9.11398583
Ag 5.10211956 1.11374311 1.07364858
Ag 5.16268787 3.04943138 3.12633391
Ag 7.22196679 1.01849438 3.14876889
Ag 7.12283638 3.09807363 1.00772836
Ag 5.12937602 1.05946189 5.10851730
Ag 5.12428025 3.00460898 7.26155801
Ag 7.32464311 1.04778188 7.07457184
Ag 7.15878652 3.08581605 5.13674011
Ag 5.18699272 0.94078106 9.23362030
Ag 5.14332478 3.04826217 11.24908644
Ag 7.19734751 1.01864609 11.25997300
Ag 7.17807067 3.10876040 9.33677383
Ag 5.04686483 5.05769014 1.04196338
Ag 4.97123435 7.08387310 3.14626651
Ag 7.08243045 5.13853304 3.05324878
Ag 7.03997012 7.18840897 1.05561225
Ag 5.22176922 5.05451650 5.07271255
Ag 5.11002554 7.17298955 7.08814059
Ag 7.15585642 5.02752433 7.14616849
Ag 7.14235613 7.19449823 4.99177726
Ag 5.16646479 5.17845150 9.21873521
Ag 5.10791524 7.15616007 11.28190947
Ag 7.11243254 5.18507701 11.26834925
Ag 7.06831223 7.18596633 9.10385663
Ag 5.07906513 9.13976121 1.20848358
Ag 5.13220069 11.32763929 3.11989007
Ag 7.11906234 9.19412784 3.08056423
Ag 7.15423475 11.24045502 1.04847383
Ag 5.03985154 9.30658227 5.10850497
Ag 5.04152629 11.23888257 7.06643610
Ag 7.16120235 9.21000180 7.04974831
Ag 7.20693974 11.27159124 5.08487369
Ag 5.15580915 9.24855875 9.13556005
Ag 5.18921407 11.25069031 11.23354202
Ag 7.05779652 9.17477148 11.20472752
Ag 7.20655434 11.27706582 9.20015802
Ag 9.15485837 1.06072738 1.02778342
Ag 9.18726294 3.17122203 3.08898639
Ag 11.20255789 0.93297015 2.99314000
Ag 11.24552788 3.06671592 0.99444070
Ag 9.34795216 1.02204871 5.15204344
Ag 9.30362353 3.20841358 7.17258166
Ag 11.14099247 1.00172290 7.23501629
Ag 11.21436750 3.02921617 5.07553361
Ag 9.12995981 1.02495654 9.17860502
Ag 9.24292244 3.13217680 11.29495953
Ag 11.20083737 0.99983360 11.17220647
Ag 11.18778169 3.09912078 9.33343541
Ag 9.16385503 5.16068945 1.09289337
Ag 9.22699712 7.19578778 3.06328074
Ag 11.33305792 5.24484394 3.05095038
Ag 11.37863626 7.09192190 1.03663260
Ag 9.17439047 5.21968385 5.04163632
Ag 9.21789889 7.15444326 7.17234712
Ag 11.17030692 5.16304842 7.12843389
Ag 11.27509795 7.18641407 5.05500243
Ag 9.15965158 5.21019437 9.31399698
Ag 9.15849875 7.20592540 11.30675618
Ag 11.23929250 5.16311715 11.31879908
Ag 11.28673375 7.18853370 9.30047955
Ag 9.25901608 9.11484897 1.07423061
Ag 9.22647118 11.17783338 2.97788341
Ag 11.38563048 9.18493007 2.95692130
Ag 11.27862031 11.30301685 0.93946784
Ag 9.28061084 9.20751307 5.04231577
Ag 9.21931460 11.06612888 7.19829029
Ag 11.33272579 9.11914270 7.25128156
Ag 11.25518896 11.22022005 5.22782704
Ag 9.22844736 9.10086210 9.24462728
Ag 9.13185496 11.13055571 11.27155225
Ag 11.30084917 9.15985772 11.29013453
Ag 11.14211102 11.14659169 9.21676541
108
Step=4500 Lattice="12.27 0 0  0 12.27 0  0 0 12.27" Properties=species:S:1:pos:R:3
Ag 0.99118570 1.12259923 0.94565184
Ag 0.85838409 2.99283669 3.04265156
Ag 3.05217707 1.04250822 3.00198485
Ag 3.05016748 3.11954368 1.02937656
Ag 0.96614359 1.08003364 5.07602646
Ag 1.02948881 3.01993030 7.14399053
Ag 3.08473680 1.05859923 7.20698471
Ag 3.06404245 2.97247799 5.05674026
Ag 0.99995329 0.94098766 9.21933376
Ag 1.02750815 3.00219748 11.15734707
Ag 3.08995853 0.97525896 11.26774337
Ag 3.07850040 2.90362395 9.23537866
Ag 1.04796749 5.16084684 1.03549139
Ag 1.18570204 7.14622094 3.06705268
Ag 3.09995618 5.05151163 3.13814490
Ag 3.15318607 7.11501433 1.11351382
Ag 0.93654917 5.10454243 5.09522086
Ag 0.99012328 7.14305814 7.09632276
Ag 3.05452260 5.09910502 7.10092459
Ag 3.13888532 7.11620854 5.14587523
Ag 0.94028229 5.14713139 9.17187601
Ag 1.03175082 7.20235135 11.27364360
Ag 3.05784959 5.03953827 11.11540736
Ag 3.15059950 7.15259246 9.12893338
Ag 1.10945322 9.18735501 0.96279704
Ag 0.96173845 11.22466864 3.01188441
Ag 3.02814193 9.25345435 3.10670896
Ag 2.97615633 11.29367315 1.03284046
Ag 0.91746369 9.26192113 5.09784785
Ag 0.95461971 11.19970638 7.23217714
Ag 3.06547312 9.20170407 7.07069868
Ag 2.92719916 11.42973417 5.10220681
Ag 1.14615222 9.15133825 9.22894973
Ag 0.96782243 11.26169728 11.18644097
Ag 3.18128229 9.20146969 11.28562738
Ag 3.06039353 11.23506751 9.11198446
Ag 5.09737287 1.11694987 1.08887282
Ag 5.16096445 3.05741437 3.12415930
Ag 7.22256027 1.02396723 3.14395207
Ag 7.12235781 3.10171159 1.00115211
Ag 5.11975066 1.04248232 5.10694876
Ag 5.09770748 2.99855141 7.25803141
Ag 7.31469538 1.05143201 7.07340419
Ag 7.15835884 3.09021859 5.14689901
Ag 5.18521472 0.93003872 9.23093233
Ag 5.13742649 3.04366242 11.24856518
Ag 7.19995373 1.01730484 11.25872534
Ag 7.17724581 3.10772897 9.33241128
Ag 5.04271543 5.05687333 1.03968768
Ag 4.97475414 7.09379083 3.13514818
Ag 7.07211509 5.16069394 3.04222033
Ag 7.04945056 7.19572706 1.04125493
Ag 5.22373846 5.05142422 5.08123343
Ag 5.11400727 7.17837701 7.09028083
Ag 7.16428753 5.01390665 7.15416977
Ag 7.13241895 7.19864174 4.99771968
Ag 5.16673076 5.17739455 9.22252312
Ag 5.12154067 7.14375428 11.28659215
Ag 7.11696329 5.18577020 11.26624254
Ag 7.06790186 7.16709497 9.10643745
Ag 5.08066512 9.13179031 1.22061251
Ag 5.13501240 11.33150532 3.11831938
Ag 7.11618948 9.19561435 3.08461957
Ag 7.16286766 11.23260647 1.05233672
Ag 5.04680186 9.30177429 5.11437313
Ag 5.03866581 11.24241053 7.06504010
Ag 7.17282316 9.21385469 7.05218315
Ag 7.20248096 11.27201408 5.09589008
Ag 5.15618787 9.24124838 9.14555560
Ag 5.19617661 11.24209398 11.23364098
Ag 7.06537413 9.17676696 11.20135380
Ag 7.20552712 11.27414544 9.20608817
Ag 9.15579677 1.05964351 1.02915762
Ag 9.18061049 3.17378255 3.08903738
Ag 11.20220531 0.93074150 3.01692402
Ag 11.24010038 3.06173725 0.99065667
Ag 9.34978365 1.03283412 5.15365306
Ag 9.29158839 3.19902900 7.16617506
Ag 11.14495941 1.00558482 7.23764925
Ag 11.20885650 3.02181062 5.07911397
Ag 9.13156449 1.02240242 9.16569070
Ag 9.25241351 3.11898373 11.28263866
Ag 11.20522734 0.99428686 11.16533037
Ag 11.18797374 3.09350833 9.32223190
Ag 9.15760217 5.16099913 1.08561207
Ag 9.22174499 7.20360370 3.06274249
Ag 11.32515843 5.24293702 3.05870122
Ag 11.37015067 7.09098459 1.03877883
Ag 9.17020920 5.21621036 5.03406375
Ag 9.21532347 7.16169816 7.17109254
Ag 11.17040042 5.16101170 7.11640964
Ag 11.28043080 7.18524831 5.05315265
Ag 9.15788884 5.21702376 9.30502560
Ag 9.16027748 7.19505968 11.31389119
Ag 11.25516959 5.16481808 11.30695815
Ag 11.28395015 7.19178271 9.29109616
Ag 9.26310763 9.12006941 1.06741185
Ag 9.23094181 11.17575481 2.98336652
Ag 11.39664778 9.19621092 2.94843403
Ag 11.27379531 11.32354084 0.93457998
Ag 9.27492177 9.21632420 5.04537800
Ag 9.22044132 11.06573502 7.20193873
Ag 11.32514301 9.11393646 7.26010848
Ag 11.25577147 11.23054730 5.22657814
Ag 9.23783691 9.10972863 9.23615409
Ag 9.13653534 11.13007272 11.27106970
Ag 11.30547344 9.16159905 11.29117459
Ag 11.14547656 11.15951482 9.21466578
108
Step=4600 Lattice="12.27 0 0  0 12.27 0  0 0 12.27" Properties=species:S:1:pos:R:3
Ag 0.99163841 1.11843337 0.95675565
Ag 0.85822895 2.99746364 3.03877978
Ag 3.06595975 1.04731576 3.00734327
Ag 3.05418188 3.12921455 1.02984775
Ag 0.97986462 1.07550643 5.06534927
Ag 1.04031519 3.02020875 7.14541178
Ag 3.09411442 1.05387187 7.18612545
Ag 3.04787548 2.96954729 5.05962853
Ag 0.99907830 0.93964647 9.20936160
Ag 1.03755365 3.00715230 11.16475612
Ag 3.08602448 0.97136109 11.27940392
Ag 3.07104561 2.90589911 9.24884802
Ag 1.04864390 5.16829616 1.04287902
Ag 1.17966001 7.15714789 3.07550755
Ag 3.09775549 5.06374155 3.14743722
Ag 3.14658467 7.13157576 1.10433478
Ag 0.94578145 5.10168863 5.10101034
Ag 0.98748529 7.14078980 7.09113536
Ag 3.05928335 5.09389754 7.10106646
Ag 3.13599983 7.12127692 5.15103399
Ag 0.93071802 5.13716564 9.16828235
Ag 1.02730554 7.20271320 11.27907723
Ag 3.05202864 5.04943415 11.10417749
Ag 3.14976244 7.14576067 9.12467063
Ag 1.10243459 9.17955605 0.97044485
Ag 0.96478329 11.21757531 3.01811441
Ag 3.03327987 9.25853730 3.09886761
Ag 2.97376531 11.29539309 1.02989856
Ag 0.92342330 9.25633723 5.09508037
Ag 0.94407906 11.19022669 7.23742045
Ag 3.05878435 9.19031138 7.06857526
Ag 2.93882568 11.42047109 5.11141471
Ag 1.14864527 9.15330698 9.22935122
Ag 0.97000331 11.26429425 11.19000925
Ag 3.18183872 9.20170645 11.29215421
Ag 3.05382677 11.22536055 9.11163326
Ag 5.09339261 1.11854943 1.10302904
Ag 5.15887261 3.06510349 3.12099280
Ag 7.22341828 1.02998121 3.13831968
Ag 7.12274877 3.10530564 0.99506655
Ag 5.11041057 1.02545523 5.10615330
Ag 5.07208366 2.99340977 7.25364260
Ag 7.30289694 1.05475187 7.07320961
Ag 7.15936759 3.09366127 5.15648122
Ag 5.18318577 0.92021098 9.22739342
Ag 5.13075312 3.03918588 11.24790992
Ag 7.20235955 1.01598617 11.25814461
Ag 7.17669887 3.10630742 9.32618510
Ag 5.03945077 5.05655157 1.03689525
Ag 4.98103724 7.10472033 3.12413700
Ag 7.06317988 5.18253310 3.03050277
Ag 7.06027974 7.20235685 1.02758609
Ag 5.22333004 5.04893055 5.09183639
Ag 5.11882800 7.18325834 7.09224665
Ag 7.17273419 5.00221710 7.16271031
Ag 7.12248289 7.20264307 5.00568083
Ag 5.16580357 5.17445448 9.22529619
Ag 5.13389393 7.13155138 11.29074482
Ag 7.12206852 5.18588679 11.26497324
Ag 7.06918433 7.14884650 9.10983488
Ag 5.08189933 9.12629859 1.23019729
Ag 5.13701937 11.33471347 3.11593378
Ag 7.11400918 9.19771667 3.08891741
Ag 7.17085804 11.22462275 1.05608793
Ag 5.05442123 9.29590240 5.11882154
Ag 5.03740406 11.24710704 7.06475690
Ag 7.18384078 9.21711627 7.05540890
Ag 7.19847209 11.27215599 5.10710947
Ag 5.15557629 9.23399906 9.15507526
Ag 5.20164162 11.23361768 11.23509081
Ag 7.07416008 9.17842701 11.19912323
Ag 7.20418727 11.26980727 9.21082314
Ag 9.15726295 1.05830603 1.03037813
Ag 9.17430028 3.17519453 3.08861348
Ag 11.20172400 0.92943967 3.04109063
Ag 11.23411092 3.05754582 0.98707045
Ag 9.34900093 1.04262494 5.15399823
Ag 9.27801798 3.18794830 7.16019294
Ag 11.15086011 1.00967526 7.24066369
Ag 11.20379751 3.01641958 5.08317615
Ag 9.13420927 1.02014301 9.15394322
Ag 9.26026423 3.10567672 11.27083253
Ag 11.20877534 0.98868395 11.15925466
Ag 11.18879774 3.08829222 9.30843579
Ag 9.15180894 5.16142588 1.07757221
Ag 9.21640166 7.21117994 3.06161488
Ag 11.31580831 5.23862120 3.06638882
Ag 11.35978309 7.09231911 1.04078129
Ag 9.16627351 5.21189025 5.02733599
Ag 9.21205601 7.16919799 7.16904220
Ag 11.17213533 5.15919699 7.10504963
Ag 11.28525894 7.18470481 5.05181070
Ag 9.15677627 5.22326240 9.29496964
Ag 9.16223927 7.18390375 11.32103122
Ag 11.27103818 5.16595357 11.29470698
Ag 11.28074825 7.19402783 9.28096144
Ag 9.26648873 9.12622586 1.05963691
Ag 9.23568527 11.17421539 2.98996456
Ag 11.40559670 9.20691319 2.94065262
Ag 11.26838814 11.34271866 0.92989368
Ag 9.26912186 9.22462036 5.04884010
Ag 9.22153465 11.06734361 7.20481659
Ag 11.31632490 9.10921855 7.26775063
Ag 11.25603462 11.24125203 5.22378489
Ag 9.24556609 9.11866501 9.22788684
Ag 9.14207418 11.13046153 11.27081790
Ag 11.30915342 9.16409451 11.29225707
Ag 11.15005281 11.17311003 9.21327764
108
Step=4700 Lattice="12.27 0 0  0 12.27 0  0 0 12.27" Properties=species:S:1:pos:R:3
Ag 0.99237528 1.11274359 0.96825342
Ag 0.86021736 3.00377171 3.03492629
Ag 3.07859665 1.05228761 3.01305201
Ag 3.05740619 3.13812488 1.03008258
Ag 0.99253444 1.06986759 5.05568614
Ag 1.05001603 3.02112202 7.14750663
Ag 3.10228389 1.04791394 7.16477331
Ag 3.03180820 2.96818759 5.06326790
Ag 0.99793950 0.93926921 9.19857883
Ag 1.04705384 3.01329539 11.17320822
Ag 3.08246648 0.96729390 11.29077915
Ag 3.06379792 2.91015173 9.26164065
Ag 1.05057982 5.17382283 1.04974625
Ag 1.17225498 7.16835595 3.08467743
Ag 3.09437547 5.07499288 3.15657009
Ag 3.13832239 7.14777331 1.09277583
Ag 0.95646888 5.09799167 5.10700357
Ag 0.98607489 7.13830014 7.08671099
Ag 3.06435757 5.08779451 7.10195333
Ag 3.13128523 7.12663037 5.15592281
Ag 0.92239926 5.12675827 9.16439618
Ag 1.02509527 7.20161855 11.28371478
Ag 3.04601691 5.06031471 11.09443565
Ag 3.14796016 7.13916740 9.12109460
Ag 1.09548710 9.17222822 0.97833291
Ag 0.96874020 11.21252643 3.02468300
Ag 3.03838405 9.26415807 3.09202831
Ag 2.97304885 11.29653781 1.02673665
Ag 0.93149252 9.25002726 5.09281624
Ag 0.93438612 11.18170002 7.24177043
Ag 3.05121829 9.17932688 7.06707536
Ag 2.95125413 11.40886358 5.12044379
Ag 1.15016610 9.15535839 9.22983707
Ag 0.97349075 11.26594055 11.19404093
Ag 3.18202767 9.20216268 11.29824023
Ag 3.04814530 11.21574203 9.11284176
Ag 5.09037481 1.11854933 1.11576222
Ag 5.15649336 3.07252737 3.11716637
Ag 7.22448343 1.03641030 3.13209813
Ag 7.12398283 3.10880192 0.98949178
Ag 5.10159376 1.00893742 5.10595947
Ag 5.04782172 2.98934580 7.24847595
Ag 7.28929115 1.05764676 7.07402748
Ag 7.16158224 3.09600166 5.16514740
Ag 5.18079612 0.91143502 9.22311158
Ag 5.12343500 3.03484104 11.24711402
Ag 7.20451427 1.01468822 11.25821083
Ag 7.17633099 3.10442931 9.31825853
Ag 5.03701929 5.05694094 1.03356339
Ag 4.98969529 7.11632726 3.11363186
Ag 7.05569094 5.20374397 3.01834854
Ag 7.07239522 7.20836319 1.01481024
Ag 5.22060073 5.04717428 5.10425664
Ag 5.12444518 7.18753967 7.09410177
Ag 7.18089163 4.99267669 7.17171347
Ag 7.11275109 7.20639631 5.01555351
Ag 5.16365746 5.16950178 9.22695866
Ag 5.14465116 7.11988301 11.29427220
Ag 7.12774874 5.18514276 11.26448002
Ag 7.07221598 7.13165760 9.11398741
Ag 5.08292163 9.12354301 1.23684852
Ag 5.13829438 11.33705217 3.11276280
Ag 7.11263920 9.20039937 3.09345163
Ag 7.17813572 11.21661349 1.05966512
Ag 5.06255316 9.28913035 5.12183733
Ag 5.03777230 11.25256004 7.06576616
Ag 7.19398218 9.21968936 7.05958799
Ag 7.19497396 11.27215286 5.11827701
Ag 5.15402025 9.22680082 9.16394514
Ag 5.20552044 11.22542623 11.23796254
Ag 7.08415403 9.17961001 11.19799279
Ag 7.20263424 11.26412544 9.21426405
Ag 9.15924715 1.05675225 1.03150000
Ag 9.16830843 3.17550283 3.08764936
Ag 11.20118922 0.92908309 3.06518776
Ag 11.22768745 3.05416688 0.98374415
Ag 9.34530953 1.05115349 5.15328304
Ag 9.26336446 3.17539584 7.15472961
Ag 11.15866200 1.01398395 7.24379436
Ag 11.19957357 3.01321320 5.08767149
Ag 9.13771432 1.01815195 9.14349106
Ag 9.26640243 3.09249807 11.25955676
Ag 11.21153984 0.98331133 11.15393445
Ag 11.19034945 3.08349949 9.29223579
Ag 9.14664089 5.16184897 1.06890786
Ag 9.21103295 7.21850695 3.05996595
Ag 11.30519560 5.23200913 3.07388755
Ag 11.34763241 7.09570554 1.04268267
Ag 9.16250954 5.20694030 5.02156034
Ag 9.20814346 7.17671127 7.16610361
Ag 11.17518571 5.15745252 7.09442665
Ag 11.28936876 7.18488085 5.05092612
Ag 9.15649902 5.22867592 9.28397986
Ag 9.16453363 7.17275274 11.32783906
Ag 11.28662290 5.16641089 11.28225557
Ag 11.27724602 7.19516479 9.27034865
Ag 9.26917477 9.13329123 1.05106180
Ag 9.24060732 11.17325578 2.99760233
Ag 11.41203250 9.21684280 2.93376810
Ag 11.26251108 11.36031591 0.92566427
Ag 9.26339475 9.23224463 5.05263376
Ag 9.22266427 11.07117284 7.20684348
Ag 11.30652853 9.10517623 7.27387627
Ag 11.25606129 11.25205509 5.21959166
Ag 9.25146928 9.12743929 9.22021105
Ag 9.14841514 11.13178532 11.27070349
Ag 11.31182100 9.16734664 11.29327166
Ag 11.15576972 11.18711553 9.21264452
108
Step=4800 Lattice="12.27 0 0  0 12.27 0  0 0 12.27" Properties=species:S:1:pos:R:3
Ag 0.99337461 1.10574721 0.98008755
Ag 0.86421811 3.01167665 3.03117291
Ag 3.08980265 1.05728448 3.01910002
Ag 3.05971620 3.14615455 1.03014246
Ag 1.00399639 1.06314976 5.04716869
Ag 1.05850234 3.02253512 7.15020514
Ag 3.10884111 1.04079119 7.14362307
Ag 3.01622137 2.96855126 5.06742668
Ag 0.99675016 0.93990079 9.18722957
Ag 1.05567146 3.02037673 11.18268080
Ag 3.07936430 0.96315003 11.30164105
Ag 3.05689592 2.91599276 9.27335213
Ag 1.05361223 5.17753789 1.05613766
Ag 1.16361801 7.17960126 3.09436275
Ag 3.08999817 5.08531382 3.16538820
Ag 3.12855875 7.16324832 1.07919819
Ag 0.96836068 5.09349799 5.11301160
Ag 0.98586576 7.13560522 7.08320191
Ag 3.06966717 5.08099291 7.10361243
Ag 3.12506041 7.13215452 5.16030338
Ag 0.91545719 5.11609259 9.16011873
Ag 1.02504384 7.19915454 11.28739324
Ag 3.03987101 5.07212224 11.08639271
Ag 3.14518171 7.13291776 9.11822227
Ag 1.08877286 9.16561321 0.98622651
Ag 0.97371353 11.20975581 3.03148158
Ag 3.04339781 9.27023586 3.08636886
Ag 2.97397528 11.29699619 1.02356118
Ag 0.94139155 9.24322567 5.09116861
Ag 0.92569885 11.17415259 7.24502016
Ag 3.04301066 9.16900086 7.06629449
Ag 2.96419252 11.39483592 5.12903105
Ag 1.15060825 9.15728651 9.23050305
Ag 0.97822707 11.26662996 11.19848199
Ag 3.18185322 9.20275282 11.30381858
Ag 3.04347542 11.20643144 9.11549749
Ag 5.08849444 1.11699623 1.12674682
Ag 5.15391269 3.07973325 3.11299519
Ag 7.22567706 1.04311177 3.12549857
Ag 7.12600532 3.11213743 0.98444173
Ag 5.09355279 0.99346336 5.10617390
Ag 5.02529838 2.98648793 7.24261500
Ag 7.27394607 1.06002438 7.07590283
Ag 7.16473033 3.09715535 5.17258323
Ag 5.17795423 0.90382546 9.21822134
Ag 5.11563110 3.03064366 11.24617828
Ag 7.20636193 1.01339724 11.25887220
Ag 7.17602875 3.10202258 9.30883928
Ag 5.03535248 5.05822984 1.02968026
Ag 5.00024392 7.12827037 3.10396267
Ag 7.04969475 5.22403361 3.00605587
Ag 7.08567608 7.21384542 1.00312320
Ag 5.21568835 5.04623339 5.11817858
Ag 5.13076502 7.19114686 7.09593624
Ag 7.18847020 4.98548411 7.18106509
Ag 7.10344411 7.20978332 5.02717504
Ag 5.16030823 5.16247778 9.22745304
Ag 5.15357125 7.10905348 11.29708216
Ag 7.13397733 5.18327244 11.26465806
Ag 7.07696100 7.11592223 9.11883813
Ag 5.08390634 9.12371028 1.24021993
Ag 5.13892015 11.33833030 3.10885504
Ag 7.11217322 9.20361917 3.09820924
Ag 7.18465857 11.20869434 1.06301434
Ag 5.07102256 9.28165337 5.12347869
Ag 5.03979071 11.25831901 7.06821382
Ag 7.20300155 9.22151641 7.06485652
Ag 7.19202546 11.27212660 5.12913857
Ag 5.15158924 9.21963495 9.17203685
Ag 5.20777602 11.21766862 11.24229099
Ag 7.09530959 9.18019635 11.19789478
Ag 7.20095848 11.25721347 9.21636036
Ag 9.16171728 1.05501689 1.03256653
Ag 9.16263783 3.17476261 3.08608831
Ag 11.20069316 0.92970518 3.08874006
Ag 11.22097828 3.05161002 0.98074148
Ag 9.33851569 1.05821413 5.15175005
Ag 9.24810992 3.16160543 7.14987777
Ag 11.16826222 1.01848364 7.24672159
Ag 11.19650421 3.01228836 5.09255271
Ag 9.14187483 1.01638281 9.13443829
Ag 9.27080667 3.07967464 11.24879693
Ag 11.21361232 0.97847574 11.14931459
Ag 11.19268464 3.07915068 9.27388837
Ag 9.14225994 5.16213267 1.05978292
Ag 9.20569743 7.22557111 3.05788098
Ag 11.29353901 5.22327260 3.08106654
Ag 11.33388692 7.10083485 1.04451589
Ag 9.15884451 5.20157675 5.01683240
Ag 9.20364600 7.18399979 7.16219791
Ag 11.17921272 5.15563323 7.08460153
Ag 11.29258003 7.18581276 5.05044425
Ag 9.15724006 5.23303699 9.27222593
Ag 9.16731768 7.16188524 11.33397521
Ag 11.30164017 5.16610200 11.26983013
Ag 11.27355534 7.19511228 9.25954189
Ag 9.27118115 9.14122986 1.04186903
Ag 9.24560518 11.17291262 3.00617640
Ag 11.41557704 9.22585874 2.92798749
Ag 11.25629942 11.37611239 0.92215960
Ag 9.25791118 9.23906838 5.05669945
Ag 9.22390813 11.07739622 7.20795242
Ag 11.29604263 9.10199457 7.27817990
Ag 11.25593213 11.26266137 5.21417392
Ag 9.25543755 9.13587064 9.21346912
Ag 9.15546998 11.13410481 11.27061495
Ag 11.31345494 9.17131617 11.29409739
Ag 11.16251954 11.20123305 9.21277554
108
Step=4900 Lattice="12.27 0 0  0 12.27 0  0 0 12.27" Properties=species:S:1:pos:R:3
Ag 0.99460284 1.09768212 0.99219854
Ag 0.87007200 3.02104037 3.02760070
Ag 3.09933313 1.06217813 3.02547287
Ag 3.06104069 3.15318614 1.03008906
Ag 1.01414035 1.05540172 5.03990699
Ag 1.06569839 3.02430753 7.15343281
Ag 3.11340459 1.03258520 7.12331753
Ag 3.00147287 2.97074447 5.07187636
Ag 0.99573806 0.94156184 9.17559650
Ag 1.06309585 3.02814235 11.19315767
Ag 3.07677695 0.95905427 11.31176027
Ag 3.05046395 2.92306428 9.28362690
Ag 1.05751415 5.17961870 1.06210214
Ag 1.15389423 7.19062137 3.10433303
Ag 3.08484130 5.09479201 3.17372345
Ag 3.11752223 7.17767554 1.06404150
Ag 0.98117818 5.08830003 5.11886059
Ag 0.98678284 7.13272822 7.08074526
Ag 3.07512261 5.07372232 7.10607053
Ag 3.11766409 7.13773338 5.16396934
Ag 0.91002978 5.10536107 9.15535844
Ag 1.02699707 7.19545794 11.28998721
Ag 3.03365686 5.08478061 11.08023853
Ag 3.14144230 7.12710993 9.11603865
Ag 1.08242878 9.15993264 0.99389341
Ag 0.97975388 11.20939366 3.03840036
Ag 3.04827286 9.27665509 3.08201910
Ag 2.97650211 11.29666521 1.02059216
Ag 0.95280658 9.23618148 5.09021754
Ag 0.91816038 11.16758885 7.24698359
Ag 3.03442947 9.15957187 7.06633156
Ag 2.97734950 11.37834580 5.13691913
Ag 1.14986395 9.15889464 9.23141994
Ag 0.98412276 11.26637938 11.20326728
Ag 3.18130307 9.20341537 11.30880416
Ag 3.03991844 11.19762778 9.11947246
Ag 5.08790217 1.11397258 1.13569286
Ag 5.15121857 3.08678405 3.10877516
Ag 7.22690245 1.04993024 3.11870969
Ag 7.12873632 3.11524291 0.97992654
Ag 5.08653788 0.97949929 5.10657877
Ag 5.00485578 2.98491280 7.23615406
Ag 7.25695358 1.06179956 7.07888238
Ag 7.16850322 3.09711478 5.17852097
Ag 5.17459001 0.89747360 9.21288219
Ag 5.10751961 3.02660920 11.24510488
Ag 7.20784232 1.01208542 11.26004406
Ag 7.17569657 3.09901470 9.29816955
Ag 5.03436894 5.06056654 1.02525854
Ag 5.01214288 7.14024059 3.09537392
Ag 7.04522222 5.24311265 2.99394848
Ag 7.09994056 7.21893022 0.99270056
Ag 5.20879796 5.04613011 5.13326128
Ag 5.13764436 7.19401492 7.09786577
Ag 7.19520026 4.98080055 7.19058837
Ag 7.09479543 7.21267702 5.04032974
Ag 5.15580882 5.15340428 9.22676264
Ag 5.16048797 7.09932785 11.29908872
Ag 7.14069533 5.18004844 11.26536340
Ag 7.08329832 7.10197570 9.12433912
Ag 5.08502980 9.12689660 1.24003589
Ag 5.13898997 11.33839796 3.10428084
Ag 7.11267536 9.20732030 3.10315246
Ag 7.19041077 11.20098778 1.06608968
Ag 5.07964061 9.27368974 5.12386330
Ag 5.04346537 11.26391889 7.07220650
Ag 7.21069157 9.22258659 7.07131845
Ag 7.18964479 11.27217868 5.13946686
Ag 5.14837350 9.21247713 9.17926914
Ag 5.20842534 11.21047149 11.24807019
Ag 7.10753223 9.18010607 11.19873760
Ag 7.19923211 11.24921999 9.21711171
Ag 9.16462009 1.05313573 1.03361573
Ag 9.15730078 3.17303908 3.08388880
Ag 11.20033388 0.93136000 3.11127231
Ag 11.21413694 3.04986566 0.97812512
Ag 9.32854771 1.06366682 5.14966068
Ag 9.23273496 3.14681131 7.14571830
Ag 11.17950138 1.02313433 7.24908567
Ag 11.19480642 3.01364943 5.09777467
Ag 9.14647496 1.01477660 9.12684643
Ag 9.27350466 3.06741481 11.23850589
Ag 11.21511314 0.97448785 11.14533966
Ag 11.19580014 3.07526466 9.25371079
Ag 9.13882261 5.16213070 1.05038597
Ag 9.20044814 7.23235364 3.05545807
Ag 11.28107454 5.21263129 3.08779684
Ag 11.31881323 7.10733786 1.04630092
Ag 9.15521270 5.19600630 5.01323411
Ag 9.19862854 7.19082903 7.15727294
Ag 11.18389025 5.15361581 7.07562237
Ag 11.29474830 7.18749206 5.05031026
Ag 9.15917479 5.23613048 9.25989225
Ag 9.17074910 7.15155303 11.33910164
Ag 11.31582110 5.16496394 11.25766624
Ag 11.26978810 7.19382027 9.24881617
Ag 9.27252800 9.14999642 1.03225440
Ag 9.25056726 11.17322016 3.01556702
Ag 11.41595017 9.23389460 2.92352429
Ag 11.24990502 11.38990750 0.91964359
Ag 9.25281724 9.24498040 5.06098926
Ag 9.22533604 11.08612597 7.20810196
Ag 11.28517102 9.09984589 7.28039989
Ag 11.25572268 11.27277307 5.20773641
Ag 9.25742178 9.14382547 9.20795815
Ag 9.16311997 11.13747762 11.27042566
Ag 11.31408095 9.17592572 11.29461116
Ag 11.17016340 11.21513593 9.21363654
108
Step=5000 Lattice="12.27 0 0  0 12.27 0  0 0 12.27" Properties=species:S:1:pos:R:3
Ag 0.99601725 1.08879729 1.00453304
Ag 0.87759962 3.03168022 3.02428776
Ag 3.10700012 1.06685424 3.03214411
Ag 3.06136698 3.15911164 1.02997823
Ag 1.02290958 1.04668617 5.03400019
Ag 1.07155201 3.02630562 7.15710560
Ag 3.11564628 1.02339484 7.10443523
Ag 2.98790252 2.97481015 5.07640155
Ag 0.99514034 0.94424625 9.16398996
Ag 1.06906765 3.03635617 11.20460939
Ag 3.07474186 0.95515444 11.32091614
Ag 3.04460269 2.93104877 9.29218051
Ag 1.06201485 5.18029040 1.06768546
Ag 1.14323724 7.20115361 3.11433414
Ag 3.07914669 5.10352748 3.18139863
Ag 3.10551868 7.19077249 1.04780179
Ag 0.99461264 5.08253226 5.12440669
Ag 0.98871140 7.12969387 7.07945595
Ag 3.08060754 5.06624109 7.10935481
Ag 3.10943701 7.14324124 5.16676255
Ag 0.90625364 5.09475871 9.15003995
Ag 1.03072588 7.19070845 11.29140763
Ag 3.02744106 5.09818459 11.07613514
Ag 3.13678288 7.12183353 9.11450165
Ag 1.07655133 9.15537139 1.00112089
Ag 0.98685390 11.21146168 3.04533517
Ag 3.05297630 9.28326455 3.07904722
Ag 2.98057745 11.29545683 1.01803987
Ag 0.96539986 9.22915059 5.09000878
Ag 0.91189922 11.16199602 7.24750635
Ag 3.02576514 9.15124846 7.06729022
Ag 2.99045450 11.35939885 5.14387322
Ag 1.14783182 9.16000407 9.23263597
Ag 0.99105679 11.26523030 11.20832697
Ag 3.18035145 9.20411247 11.31309250
Ag 3.03754519 11.18950998 9.12462844
Ag 5.08869547 1.10959279 1.14236172
Ag 5.14850276 3.09374921 3.10475978
Ag 7.22804808 1.05670158 3.11189285
Ag 7.13207623 3.11804565 0.97595484
Ag 5.08078060 0.96744221 5.10695683
Ag 4.98680567 2.98462659 7.22919756
Ag 7.23842994 1.06289973 7.08300789
Ag 7.17256672 3.09594561 5.18275122
Ag 5.17065507 0.89244827 9.20727601
Ag 5.09928584 3.02275357 11.24391583
Ag 7.20889277 1.01071842 11.26163310
Ag 7.17524213 3.09533550 9.28651510
Ag 5.03397780 5.06405148 1.02033339
Ag 5.02483577 7.15198437 3.08801491
Ag 7.04229687 5.26069385 2.98235090
Ag 7.11495004 7.22375654 0.98368004
Ag 5.20018547 5.04684147 5.14914472
Ag 5.14490376 7.19609465 7.10002974
Ag 7.20084444 4.97873417 7.20006230
Ag 7.08704240 7.21494572 5.05475315
Ag 5.15026467 5.14238629 9.22491358
Ag 5.16531795 7.09092327 11.30020906
Ag 7.14780889 5.17530062 11.26641063
Ag 7.09103575 7.09007835 9.13045889
Ag 5.08645195 9.13308935 1.23611948
Ag 5.13860346 11.33715888 3.09913403
Ag 7.11416915 9.21143468 3.10822639
Ag 7.19540061 11.19362182 1.06885255
Ag 5.08821168 9.26547029 5.12315489
Ag 5.04877241 11.26890645 7.07780418
Ag 7.21689249 9.22293914 7.07904020
Ag 7.18783087 11.27238520 5.14906029
Ag 5.14448442 9.20530402 9.18560624
Ag 5.20753889 11.20392889 11.25523766
Ag 7.12068041 9.17930488 11.20040783
Ag 7.19750234 11.24032344 9.21656743
Ag 9.16788349 1.05114621 1.03467888
Ag 9.15231708 3.17040722 3.08103031
Ag 11.20020232 0.93412509 3.13231133
Ag 11.20733219 3.04890895 0.97595373
Ag 9.31546831 1.06744479 5.14727246
Ag 9.21769203 3.13124531 7.14231737
Ag 11.19216391 1.02787955 7.25050517
Ag 11.19458867 3.01719790 5.10329590
Ag 9.15130240 1.01327302 9.12074964
Ag 9.27456832 3.05590674 11.22861080
Ag 11.21618703 0.97164069 11.14196435
Ag 11.19963936 3.07186288 9.23206715
Ag 9.13647728 5.16169282 1.04091398
Ag 9.19533430 7.23883022 3.05280436
Ag 11.26803821 5.20035728 3.09395792
Ag 11.30273926 7.11482100 1.04804415
Ag 9.15154196 5.19041808 5.01083158
Ag 9.19317192 7.19697632 7.15131029
Ag 11.18890745 5.15130930 7.06752414
Ag 11.29576563 7.18987492 5.05047338
Ag 9.16246302 5.23775902 9.24717251
Ag 9.17498564 7.14197281 11.34288801
Ag 11.32890632 5.16295837 11.24599494
Ag 11.26604296 7.19127896 9.23841587
Ag 9.27322463 9.15953475 1.02242150
Ag 9.25537318 11.17421195 3.02562640
Ag 11.41299610 9.24096387 2.92058476
Ag 11.24349362 11.40151132 0.91835938
Ag 9.24823839 9.24989077 5.06546893
Ag 9.22700157 11.09739936 7.20727912
Ag 11.27420870 9.09887799 7.28033673
Ag 11.25549732 11.28210073 5.20050881
Ag 9.25743647 9.15121119 9.20390482
Ag 9.17121929 11.14195712 11.26999082
Ag 11.31376752 9.18106621 11.29469552
Ag 11.17854100 11.22848164 9.21516806
