500
Final configuration Lattice="17.60000000 0 0  0 17.60000000 0  0 0 17.60000000" Properties=species:S:1:pos:R:3
Ni 14.13839656 0.50501325 13.44292898
Ni 1.27401491 2.30367959 5.57138085
Ni 15.44724932 13.47083334 1.65995633
Ni 14.93112214 14.69617791 16.05072575
Ni 4.05924711 1.84266855 3.14225250
Ni 11.04248353 10.55589286 9.26587602
Ni 3.92145372 11.56992317 12.12211493
Ni 7.49823909 1.05715412 10.27298024
Ni 12.52498697 13.04783243 5.83080462
Ni 12.30692968 14.81365085 7.77271438
Ni 6.75144448 15.44315801 15.00193998
Ni 14.93448511 5.51018440 4.39452560
Ni 15.25223974 15.48570077 2.06309645
Ni 5.31811395 11.76290727 1.05425397
Ni 8.12495096 17.23236433 8.85649268
Ni 5.92120533 11.65368438 16.54949840
Ni 9.53840059 14.75725208 15.40201995
Ni 14.60271970 6.19333209 1.06389294
Ni 7.67217287 1.63317483 12.66935549
Ni 8.46944844 14.04871922 1.32974673
Ni 2.44452966 0.44629578 5.76372913
Ni 7.32714355 17.51769677 6.28121822
Ni 17.18074258 0.21907070 8.04352734
Ni 11.04864267 3.54259841 17.38487799
Ni 1.06313131 1.88390522 13.05814058
Ni 9.84448502 9.41417960 1.55795924
Ni 11.46059285 0.76811649 14.97600252
Ni 14.69023916 9.58633243 3.55368778
Ni 11.83783793 5.66150757 5.48400111
Ni 10.79266452 6.51502504 16.34871159
Ni 7.84279607 3.45263743 13.91203883
Ni 16.22377803 7.32311396 10.14863150
Ni 12.92400754 11.09590293 12.59902472
Ni 0.79353789 16.03202383 15.51513563
Ni 2.10940672 6.31121520 15.52193323
Ni 7.82642418 11.96524629 15.57674293
Ni 9.78141300 2.44376063 1.59231888
Ni 0.62788767 7.06922682 10.59880331
Ni 11.62307243 1.66410775 17.11371604
Ni 14.69798264 3.89144285 0.97163017
Ni 12.92965010 0.29796003 0.66845379
Ni 8.09183140 17.40735997 17.13390874
Ni 5.35496874 10.85919649 10.40074322
Ni 9.50316132 7.18629292 1.84576354
Ni 14.91315980 8.57400084 15.17267596
Ni 10.96023589 11.80176973 12.68999973
Ni 11.90285322 11.00510586 17.30592498
Ni 7.62453619 11.03753293 7.08090259
Ni 4.66954793 7.25099726 12.42493729
Ni 17.37684606 0.73072355 2.84611317
Ni 0.31405904 13.18864596 7.81203440
Ni 12.08768398 15.40893310 5.52227557
Ni 8.66668032 9.89326604 9.02719087
Ni 7.57706587 9.99700864 10.91399017
Ni 8.89119471 4.36200469 2.38214303
Ni 2.73751877 16.55826461 14.20126294
Ni 2.44179425 11.51772373 4.38061821
Ni 1.44225551 5.38878913 4.55746696
Ni 10.65223388 15.77429434 11.77138924
Ni 5.30221482 11.70585828 14.48842567
Ni 0.18746052 13.94893679 15.68763768
Ni 9.50213154 10.41374643 17.15777573
Ni 15.93647092 5.34820945 2.52671055
Ni 9.29182882 17.44866715 6.97928723
Ni 15.51171680 11.32988732 5.18663984
Ni 5.51881630 9.21503416 12.09601304
Ni 7.93793401 5.17039919 15.81844962
Ni 12.12183304 14.45643517 10.07411199
Ni 12.98618737 17.37993242 5.09606826
Ni 15.54097984 16.81125056 6.55519986
Ni 13.06639679 9.33775633 7.58565596
Ni 16.46927945 7.12780459 7.84225841
Ni 1.50975114 3.45873250 11.55952667
Ni 11.79993890 7.44187314 11.05431120
Ni 15.49335814 6.08845725 6.23498933
Ni 10.53576577 16.82896710 4.57612803
Ni 3.49056755 13.18793146 14.86777968
Ni 0.80186671 10.43367969 8.55471236
Ni 2.90154536 13.36506706 10.83450996
Ni 4.65959895 14.85593536 14.60832941
Ni 5.65441108 8.06495832 13.92951338
Ni 6.04586873 17.39083684 8.96764599
Ni 13.50689833 4.93078096 2.55409651
Ni 0.06239528 9.23093117 1.01948768
Ni 6.80844061 8.64155816 4.40837332
Ni 5.28967995 13.42137247 13.01358428
Ni 3.07274155 2.56100619 7.46179090
Ni 2.01030239 1.06069267 3.60536158
Ni 13.62367767 6.97316440 3.43311532
Ni 16.90076104 16.28016980 13.88639962
Ni 6.22469639 12.67738660 6.71103795
Ni 5.44481667 16.73084813 6.93378149
Ni 2.56203008 4.56545183 8.35433900
Ni 4.28563475 10.97184100 6.39994330
Ni 16.17743854 8.52353748 4.85533506
Ni 17.53541626 11.52493406 5.44366577
Ni 11.37159916 1.62594602 3.28276732
Ni 12.29987721 16.03968858 1.16008147
Ni 8.23652420 13.45801463 9.13515257
Ni 14.86543399 2.05956851 2.22495854
Ni 16.43530640 6.44591594 12.14001425
Ni 2.58092406 0.02818809 16.73015757
Ni 2.02644516 6.37243911 1.31348970
Ni 6.06943853 8.66258467 9.81599820
Ni 11.01032756 5.26889990 10.05640832
Ni 13.71375505 4.49180181 6.19174878
Ni 2.21605585 1.91087302 0.04736983
Ni 4.85326474 3.51223034 0.18269490
Ni 12.23099098 16.09688843 14.62528246
Ni 5.72087015 5.63014321 17.16910559
Ni 16.67193602 11.22187433 10.04791077
Ni 5.79986572 5.83163044 13.70217089
Ni 9.09282364 3.79405552 4.95155204
Ni 6.45108934 11.78699400 8.82562738
Ni 9.64041768 12.94440035 3.09953359
Ni 1.91363006 13.27234695 2.58026008
Ni 6.56134304 3.64207812 16.32071035
Ni 13.54799409 0.40060897 15.58955457
Ni 17.05969276 7.42046212 0.74789629
Ni 16.38152453 4.06006039 5.64481350
Ni 10.67501844 14.69489707 1.86469595
Ni 2.84784134 7.88494373 13.90376287
Ni 11.76275654 7.74276838 13.11841212
Ni 11.02779390 3.48103429 5.89118875
Ni 3.92761595 0.82793332 1.05610233
Ni 0.70144393 3.62396025 0.16234541
Ni 1.93196380 9.76741925 13.82350812
Ni 7.57950796 1.79065635 0.19936695
Ni 15.13374334 10.38855431 13.91451113
Ni 1.05264280 2.44410666 1.92427826
Ni 4.03862964 13.18180615 2.36052111
Ni 9.76911702 1.43005191 13.19044583
Ni 12.30093206 6.68952622 8.87892182
Ni 16.53448494 1.98003845 4.42244017
Ni 4.19000456 0.80277596 9.04285912
Ni 6.26736036 16.71515703 0.89143055
Ni 0.16619277 14.08029923 1.34747916
Ni 1.37427393 4.51479946 13.84482651
Ni 5.08460505 1.69207796 11.48789753
Ni 2.77294773 7.15854784 3.21567403
Ni 7.87449470 5.85856764 0.49430512
Ni 6.36521197 3.72669809 10.33284762
Ni 1.49300108 10.38720475 17.20190114
Ni 7.67949083 15.95483019 2.54153189
Ni 13.09733328 16.51105001 9.16141612
Ni 3.15939140 11.03081027 15.26856514
Ni 2.27760716 6.23632959 6.76564529
Ni 2.99681974 9.22840242 15.97844074
Ni 15.75414478 10.32071432 16.56121177
Ni 6.16160561 3.53756483 12.65054663
Ni 8.99884907 10.25519719 14.84694181
Ni 12.72354063 2.36917258 5.99809505
Ni 5.85766850 15.29462699 3.27368396
Ni 16.11042177 1.00711864 13.73383196
Ni 9.64457246 17.57181191 11.00604541
Ni 9.11190774 2.38118039 11.11480603
Ni 2.02731589 12.24901182 16.52291030
Ni 6.43257438 13.78223878 16.46622736
Ni 16.25111676 10.83148663 7.24949072
Ni 2.15167507 11.68087386 6.73556024
Ni 16.87222220 4.53393180 14.41022284
Ni 1.66722224 17.06086133 12.03702690
Ni 9.81973396 15.19964391 9.22669760
Ni 12.08294105 17.22195300 3.09598552
Ni 1.12756571 13.18126804 5.80933003
Ni 4.19484616 17.17180808 10.82675195
Ni 4.18471292 5.80783203 1.54108103
Ni 0.27474242 15.66521174 11.51595648
Ni 14.56807123 4.17816833 15.82654546
Ni 16.06111543 4.40454249 7.96851404
Ni 8.86761169 9.18064539 12.73597640
Ni 11.05501847 13.78016630 14.33864896
Ni 5.72174832 2.20521412 8.89546604
Ni 5.12847732 3.73199404 2.42069837
Ni 2.57225551 15.16426442 16.26475288
Ni 15.39026189 12.52350014 15.57268775
Ni 13.01896465 9.50623953 14.05543404
Ni 10.72442073 1.34331762 5.39387580
Ni 1.68017526 0.14301568 1.80831067
Ni 7.28835843 13.74150773 11.19671194
Ni 0.08621546 16.09271101 2.01243407
Ni 6.23958656 7.92155531 0.40342476
Ni 2.15987607 3.52497421 15.97292133
Ni 6.10357109 11.43170133 12.41587528
Ni 13.58828775 11.96974009 14.34102429
Ni 7.36458008 7.74989648 12.09072706
Ni 1.95919330 2.07345931 9.50371592
Ni 12.19644200 13.34818644 2.06915654
Ni 14.58445522 6.25649773 8.13898843
Ni 4.20337572 17.00723781 15.82109852
Ni 10.39956983 12.32938485 5.65221389
Ni 9.62212828 1.45075626 17.19901734
Ni 0.45719819 13.50143617 12.36254546
Ni 5.14418525 15.43017690 16.97538909
Ni 10.48512142 8.62289910 15.69309713
Ni 15.74785460 9.67379383 1.38622688
Ni 3.91996328 7.21797043 17.47406213
Ni 5.72934871 17.41353350 4.78849314
Ni 16.04919532 14.27655683 14.25970038
Ni 11.93353759 2.22742721 13.09435291
Ni 9.97323767 4.77061258 15.50052042
Ni 8.96542577 13.60991036 16.95298229
Ni 11.67287242 14.61754751 16.18871134
Ni 17.45179085 11.94351368 15.88482577
Ni 6.41366196 5.76491925 8.11938690
Ni 10.67128010 1.84674030 7.30713345
Ni 12.65293223 16.18149594 11.77466182
Ni 16.72912754 0.16708624 15.84557668
Ni 3.00185052 16.66419447 7.43262081
Ni 3.99950684 15.54724176 4.54657368
Ni 7.63583972 8.68229689 2.37531803
Ni 8.12115968 17.46254757 4.18650144
Ni 7.39233544 12.32616587 0.38901856
Ni 12.24561556 5.65628578 14.82288680
Ni 4.93439092 7.06433052 10.08102540
Ni 4.34109348 0.30340239 13.17500806
Ni 0.05694236 13.37217325 3.74247689
Ni 15.18444763 8.13941508 17.38254724
Ni 15.21835823 1.99135197 15.35788984
Ni 7.60759685 6.34534116 2.49629121
Ni 14.01633889 14.59919871 5.96838491
Ni 0.20713867 0.60207544 0.61256613
Ni 13.99126249 11.74267012 2.90078010
Ni 12.56874876 9.47930751 3.27220946
Ni 14.09909077 1.84214436 0.11697830
Ni 8.13249368 0.23130712 1.87999640
Ni 9.86490073 2.45219634 15.40357573
Ni 6.14103384 15.41857077 10.25007002
Ni 10.46237432 6.05412447 3.72291763
Ni 13.54962749 9.27765718 1.07379971
Ni 8.89921971 8.86191619 7.23183256
Ni 9.82545413 17.22428539 15.76564323
Ni 2.21489291 3.30518488 3.55973317
Ni 16.54395379 3.07198770 11.86771263
Ni 3.14270289 2.98575390 13.26226481
Ni 17.06033351 8.53109016 16.36996647
Ni 11.34653755 10.72550016 15.23092453
Ni 12.51101697 4.16745964 13.08882654
Ni 14.27855249 15.18835724 10.98819482
Ni 16.58138894 2.04255243 9.58095674
Ni 9.85138960 6.55645754 5.84562121
Ni 9.43765110 13.40514632 12.97382931
Ni 10.33055685 3.32398695 9.39024826
Ni 2.45067708 4.00919316 5.95837185
Ni 2.62345973 1.34207880 14.92103951
Ni 14.86581314 4.85062824 13.05631113
Ni 9.21847205 7.93527213 4.32137102
Ni 2.46798650 5.92291940 11.89449878
Ni 3.16744298 9.06898859 9.63506566
Ni 10.24840527 16.30015912 13.88418092
Ni 7.96495018 8.31334068 14.40243158
Ni 17.17490682 10.13381003 3.89648258
Ni 17.27190202 13.35179650 10.18359848
Ni 2.67531643 6.09558759 9.71879270
Ni 14.94533621 14.60829027 8.23865938
Ni 12.62045731 7.22958333 6.85010292
Ni 10.46821168 12.59009495 15.86314916
Ni 3.97710818 13.11547861 17.36963841
Ni 11.83486015 17.03259486 16.77457460
Ni 11.61009114 8.93132149 17.55263017
Ni 3.10899962 8.72494481 1.69132722
Ni 3.48190742 5.10202846 3.69805223
Ni 8.94618681 1.65565120 8.48778474
Ni 11.29252960 9.96591599 11.46499305
Ni 1.44094443 8.08019640 0.06480437
Ni 8.04351584 4.00756530 8.93049721
Ni 0.49771064 15.46655902 8.12422515
Ni 3.27440406 11.25643300 9.97449935
Ni 5.48284444 9.34176544 15.67418541
Ni 16.79123841 8.04391526 13.70847341
Ni 15.87974653 13.23389534 6.55800925
Ni 9.02622756 6.98943673 8.16074393
Ni 4.00608124 5.51174096 15.47356587
Ni 3.89073453 3.26323072 10.48872570
Ni 15.86255225 5.28806309 10.27117129
Ni 13.61203218 9.03709706 10.81079563
Ni 5.99661281 1.90927029 4.03673689
Ni 12.76302817 15.39429317 3.28321798
Ni 7.57545696 6.52665795 10.01387487
Ni 5.82173343 6.12483244 3.74558407
Ni 14.52515197 0.15030506 2.93000180
Ni 6.64397113 7.81705112 8.08863708
Ni 4.97842052 9.49247065 0.66444611
Ni 13.25288255 14.01750797 14.64435875
Ni 3.97720355 15.43146984 9.35915924
Ni 11.12269477 12.63279072 9.38555360
Ni 1.24127321 8.17169697 12.57925071
Ni 10.45609113 9.65846160 3.76580722
Ni 7.92044183 6.16358344 13.93897815
Ni 12.93903815 10.88288216 5.21091016
Ni 15.06690640 11.08628841 11.88104186
Ni 4.14033349 9.62851873 13.87690626
Ni 2.53961424 15.19526764 2.77062828
Ni 1.24623292 8.32655972 8.66525643
Ni 9.55104858 15.34717057 6.11702248
Ni 2.56200025 13.42726759 13.03098816
Ni 4.83099123 10.23906708 8.40600995
Ni 4.19114826 9.42288684 4.12432146
Ni 6.88547414 10.31447325 13.87708942
Ni 8.08255013 5.75694980 4.76373413
Ni 3.80741473 7.34983959 4.77487987
Ni 8.62846263 7.01547551 16.19512786
Ni 12.31884987 3.40983194 15.48132714
Ni 6.13812699 17.55120056 15.05803700
Ni 4.37592918 5.33371991 6.24230718
Ni 2.94640106 1.26057400 11.64351214
Ni 9.54576239 11.56023250 7.97449104
Ni 17.11471853 6.05755673 4.67667458
Ni 8.81125649 10.35827117 5.35150692
Ni 9.64197271 8.71530574 10.68258474
Ni 15.64874177 9.51042952 10.77349307
Ni 15.71582982 6.38998844 14.21500434
Ni 1.69767500 0.75141974 7.68363096
Ni 6.45922835 12.23099499 2.67279085
Ni 10.88234094 3.73502890 11.77550133
Ni 16.56187940 9.16447781 8.94947943
Ni 0.08623153 16.11520005 17.50030432
Ni 7.77191700 15.46903216 17.28202721
Ni 5.68120028 1.93960823 14.06486022
Ni 16.22474123 17.30572040 4.48125864
Ni 11.61446989 7.65677676 2.54175786
Ni 2.70651080 11.14903644 2.00500537
Ni 17.05022638 3.84562689 3.12154267
Ni 0.38864594 11.58991979 1.90738312
Ni 0.13884151 0.06359991 5.94027342
Ni 12.75833741 4.72384849 0.25082985
Ni 9.08428743 11.91671838 1.28467646
Ni 17.28364795 15.33843230 6.15035466
Ni 4.18856041 11.42806652 3.55677422
Ni 14.66013831 1.38590229 5.87107139
Ni 1.40167075 9.12729926 2.93412884
Ni 9.59911205 4.87631169 13.26062951
Ni 10.09081608 17.37205009 8.91559858
Ni 11.06067101 12.66765437 0.36210003
Ni 9.89167476 6.83785440 14.24361281
Ni 8.51681891 17.34716308 14.02029501
Ni 7.42647509 15.47732254 5.16581874
Ni 11.31094866 5.57896430 1.94903082
Ni 6.93639801 3.78402676 0.89500786
Ni 11.70166373 7.94532165 4.81148699
Ni 10.10899266 13.84111526 10.84925115
Ni 3.21056207 3.42106228 1.48477976
Ni 9.89865915 16.20926409 0.25629433
Ni 6.01796490 0.47926332 2.64712953
Ni 5.57192872 15.71065496 12.43270214
Ni 14.34735428 6.38903815 16.03420804
Ni 11.36624678 0.27225971 12.90384793
Ni 16.13387743 14.54733107 12.07947121
Ni 1.30981414 4.89397487 2.50547664
Ni 5.13557041 7.71988416 2.32740152
Ni 11.82933252 3.93464304 3.67642101
Ni 2.54311241 14.44371669 7.66632331
Ni 7.09009087 4.08836848 3.52012811
Ni 13.74410517 14.28925795 0.34100836
Ni 15.05704573 2.44283742 7.77032897
Ni 8.80377730 3.33712138 16.85925487
Ni 7.31993970 7.41997107 6.15865905
Ni 14.89127782 3.22434643 10.20690131
Ni 12.50843235 11.74456149 10.60158398
Ni 6.85742957 3.63624425 6.46488567
Ni 9.78429903 16.60549131 2.59559825
Ni 7.25267480 17.37830878 11.95666158
Ni 16.84972034 6.03754608 16.08770267
Ni 4.66281300 4.52378226 8.94290184
Ni 3.47322165 16.06219774 0.89258727
Ni 7.39676198 1.65623547 15.43568865
Ni 14.34437639 8.40722268 8.92685886
Ni 3.24874236 5.03379438 17.51037107
Ni 17.18389659 10.26997003 12.38234269
Ni 0.50097402 5.24882345 9.08561989
Ni 7.58812686 15.22452535 7.78505328
Ni 8.26014782 10.58170091 2.98087645
Ni 12.21766403 14.13288211 12.47995710
Ni 14.44331837 8.39189783 12.72341310
Ni 6.68238478 5.25212775 11.65661730
Ni 5.73000385 10.09127773 2.63160043
Ni 14.30890272 15.48790342 13.38256194
Ni 2.46950029 9.80427093 7.58995830
Ni 5.23631250 13.01339073 10.80094741
Ni 1.82709492 14.86770861 10.10335803
Ni 14.03607859 16.48347001 17.14923485
Ni 14.70122089 3.53571594 3.95248024
Ni 7.64037717 12.86013000 4.49946919
Ni 11.61251112 10.43655886 1.82242212
Ni 11.64387319 11.10493060 7.06876496
Ni 10.76998029 9.35746117 5.97273912
Ni 0.09191459 9.22360453 6.85779603
Ni 4.61402949 3.62729994 14.76428330
Ni 4.12531423 1.96123862 16.26708680
Ni 12.78805174 3.56600534 10.96500326
Ni 8.07737607 5.50565440 6.90694072
Ni 10.49696879 0.64264716 1.39666900
Ni 3.56100686 10.92588720 17.40828595
Ni 13.70992325 6.31157295 11.22767798
Ni 13.39403551 13.04496532 8.40978335
Ni 0.39277530 2.00515884 15.54710376
Ni 17.54305764 10.03062830 14.65437907
Ni 14.14010023 2.52677166 12.36332695
Ni 14.28594112 11.71074786 6.85153413
Ni 4.46754900 16.79510905 2.79687545
Ni 6.49278503 7.18817289 15.75082646
Ni 3.14662364 15.33761387 12.13861450
Ni 14.84576394 13.15796660 10.28986155
Ni 5.06582996 3.83061339 4.89331358
Ni 8.56448476 13.31679295 6.47624479
Ni 11.92924405 0.97928080 8.82918633
Ni 16.46624523 15.44016620 9.64480498
Ni 14.55832026 10.63699800 9.12640040
Ni 8.34573812 15.89425939 10.44602288
Ni 12.75721750 2.90768205 8.15723748
Ni 1.09723357 5.87651160 17.18449853
Ni 16.66157666 13.40641363 17.30085886
Ni 8.76951067 11.35184755 12.70285570
Ni 6.04188911 14.20180087 1.30985456
Ni 13.25742444 1.69728470 4.06156273
Ni 13.48245306 4.66230672 9.30427238
Ni 14.93041971 0.56954519 9.23742600
Ni 10.82998536 9.59932065 13.57482893
Ni 7.54573179 9.43397612 16.35176854
Ni 3.05167808 9.31947696 11.94509081
Ni 1.86598722 9.59389077 5.12173722
Ni 9.56152805 6.93961823 11.73187407
Ni 0.39676365 5.09424504 11.40072146
Ni 14.25022705 11.47065287 0.80715316
Ni 0.72355341 0.27437845 14.26506089
Ni 11.58494960 11.88556928 3.60003235
Ni 1.01987099 9.33698543 10.73232167
Ni 3.99792250 1.95698207 5.61172198
Ni 4.08986476 6.73396904 8.13197536
Ni 0.34846945 7.16796205 2.88788843
Ni 6.53056408 10.65729097 4.81207352
Ni 12.21467750 6.98096638 0.41619981
Ni 13.76120154 0.03494538 7.40683732
Ni 8.12332624 15.45596941 13.05364798
Ni 10.57410758 13.63937958 7.41262887
Ni 9.40641766 11.34005395 10.55037314
Ni 3.80107883 5.08750046 13.25505869
Ni 9.02813125 4.56256017 11.00855616
Ni 13.39775144 12.76786472 16.50903812
Ni 9.01821622 3.59726019 7.16716570
Ni 14.20473876 7.59108160 5.35155256
Ni 4.85788407 8.32841617 6.56621967
Ni 15.78956027 7.50940620 2.59578810
Ni 15.35147275 13.33474382 3.73659697
Ni 3.75847114 13.15843019 6.26828152
Ni 1.81952676 15.81424040 5.75161033
Ni 5.75266327 1.29256689 6.53121166
Ni 14.35667183 13.42027070 12.60174948
Ni 11.17771884 8.52917243 8.65646393
Ni 7.00725375 10.08022416 0.70731282
Ni 1.48644985 17.14214685 9.71483728
Ni 1.20700573 8.13025032 15.27991165
Ni 9.74515295 5.18418515 0.33551338
Ni 11.30553423 14.15848751 4.04632145
Ni 9.18747874 1.71730367 3.71537262
Ni 8.48820498 8.26370133 0.31193415
Ni 16.51943034 4.90388903 0.19163408
Ni 1.26232170 12.18001389 14.44494858
Ni 13.17402001 0.60055857 11.22380632
Ni 11.08472380 1.50150888 11.02820768
Ni 11.42958900 5.73063019 12.10249807
Ni 7.17672052 13.54876372 13.95652177
Ni 0.60042427 5.05636936 6.73838565
Ni 0.74487862 16.63136575 3.98789118
Ni 4.30155249 7.45763791 15.38566782
Ni 15.95669668 17.10516591 0.48322739
Ni 0.65144085 6.45532370 13.58235123
Ni 5.68863306 13.15281578 4.70792191
Ni 4.26008610 12.75181951 8.43417022
Ni 4.98232693 14.71761829 6.93317908
Ni 9.12075170 15.01657911 3.97059516
Ni 16.39690371 2.01571027 17.08742916
Ni 12.58771039 8.14599261 15.72057287
Ni 4.91321412 3.27431759 7.01079084
Ni 5.67853007 0.97677175 17.23226967
Ni 16.55298698 11.48274131 0.49749172
Ni 1.54180191 11.51114543 11.87864281
Ni 15.42846855 1.07144735 11.31537011
Ni 2.63381294 14.00242638 4.65061048
Ni 11.56058086 4.85734991 7.50028840
Ni 12.45393423 2.79859908 1.30056280
Ni 16.74306343 2.05053888 6.46497098
Ni 13.82335531 6.68762742 13.50089604
Ni 0.57611014 3.09991017 7.64457898
Ni 7.51463581 2.27434280 2.32951962
Ni 15.52141714 15.52856772 4.55099086
Ni 7.99211062 1.96413811 5.79420225
Ni 6.45485021 9.45842692 6.47316005
Ni 16.65973540 12.10597001 13.66188785
Ni 1.01431679 7.83988886 4.82233952
Ni 11.52630941 17.04700448 6.77235994
Ni 1.65137783 12.42603560 9.40633198
Ni 2.07343435 13.73748821 0.48694703
Ni 17.41786362 0.16813933 11.27357288
Ni 13.80001755 10.26648964 15.86267338
Ni 14.51251104 9.46988298 6.26088970
Ni 15.78721261 12.55302144 8.58734196
Ni 1.22102567 15.20352714 13.46969206
Ni 15.99284710 11.53651132 2.53438586
Ni 4.73519835 5.20832071 11.01879634
