500
Final configuration Lattice="18.07500000 0 0  0 18.07500000 0  0 0 18.07500000" Properties=species:S:1:pos:R:3
Cu 0.03181314 17.99009244 18.06391517
Cu 18.01610905 1.73083182 1.76999573
Cu 1.79347791 0.02684192 1.79913141
Cu 1.80602494 1.89897289 17.97849638
Cu 18.01174605 18.00732730 3.70079662
Cu 18.02254533 1.73619434 5.43317168
Cu 1.79726733 17.99059398 5.57908952
Cu 1.71052610 1.81810909 3.58395876
Cu 0.02035036 0.01084082 7.32422475
Cu 18.06809367 1.83265535 9.13985683
Cu 1.83745894 0.07377996 9.15731959
Cu 1.82210823 1.78817204 7.27448861
Cu 0.00614098 0.00759592 10.81557868
Cu 18.00437316 1.87019007 12.65760132
Cu 1.75002381 18.05699584 12.66372089
Cu 1.75762938 1.76912927 10.91320566
Cu 0.01703590 0.00540124 14.47501705
Cu 0.05106173 1.84642300 16.22567802
Cu 1.78953705 0.03692947 16.30038793
Cu 1.79537044 1.81455990 14.43310281
Cu 18.04740898 3.58624439 18.04519857
Cu 0.07341640 5.44380455 1.80913082
Cu 1.77591583 3.59910437 1.75956241
Cu 1.80710050 5.44769516 18.03408727
Cu 18.06300308 3.60348468 3.61714646
Cu 18.06117440 5.30935300 5.44062373
Cu 1.81517987 3.54603282 5.40540112
Cu 1.78555056 5.39477028 3.61724562
Cu 0.00957089 3.63526261 7.35967002
Cu 0.04425155 5.49144328 9.08238398
Cu 1.86397294 3.63957526 9.05763058
Cu 1.80173400 5.41787636 7.21940420
Cu 18.00448865 3.63063729 10.73464238
Cu 0.02281697 5.37152277 12.54868359
Cu 1.78961336 3.62257639 12.63699258
Cu 1.86770743 5.38123919 10.90465328
Cu 0.02656875 3.69455893 14.46637504
Cu 0.03216783 5.41247346 16.29672340
Cu 1.90388442 3.65001061 16.23995278
Cu 1.89780026 5.43217747 14.42859194
Cu 0.09922164 7.30134213 17.90580079
Cu 0.06789091 9.03788763 1.79823320
Cu 1.89049610 7.17036504 1.74588313
Cu 1.88517437 9.09620281 17.97877054
Cu 18.06301875 7.22526283 3.52159385
Cu 18.03831211 8.91476081 5.40199382
Cu 1.87161799 7.15584934 5.39137724
Cu 1.78789174 9.01131290 3.66192323
Cu 18.05593126 7.10149135 7.15730269
Cu 0.05456128 9.02201424 8.94749414
Cu 1.82662419 7.18629530 8.93156754
Cu 1.73888041 8.98471334 7.18446235
Cu 0.01929096 7.33006336 10.78495302
Cu 18.06885902 9.11969602 12.60979578
Cu 1.81154894 7.22633677 12.61942955
Cu 1.79421143 9.05641242 10.78660946
Cu 0.07438851 7.28802854 14.48105480
Cu 0.11625806 9.10032729 16.20366989
Cu 1.79737748 7.27462508 16.24209341
Cu 1.89019502 8.96258703 14.41194896
Cu 0.05103416 10.79308792 18.07147243
Cu 0.02375426 12.59188659 1.73695228
Cu 1.87601205 10.79720868 1.83598652
Cu 1.83604220 12.62917194 0.06784931
Cu 18.06584706 10.77897583 3.64423611
Cu 18.02696819 12.65280726 5.42533436
Cu 1.80439215 10.88229070 5.41455935
Cu 1.71716922 12.71303422 3.54660107
Cu 18.02024850 10.85263317 7.23145740
Cu 0.02302967 12.60432877 9.03593164
Cu 1.81458782 10.87768612 9.09832396
Cu 1.82124948 12.62938502 7.27513618
Cu 18.03674683 10.93595584 10.80814570
Cu 18.02713375 12.68840350 12.59628414
Cu 1.82710661 10.86287079 12.60004691
Cu 1.82669352 12.59653795 10.74233336
Cu 0.11242095 10.88785118 14.34415722
Cu 0.05754680 12.57546561 16.26185623
Cu 1.79174004 10.87926530 16.24994428
Cu 1.87485607 12.71373195 14.39697429
Cu 0.01390593 14.41360038 0.07030641
Cu 0.06953977 16.23829344 1.76454359
Cu 1.82042618 14.49223943 1.86544440
Cu 1.80202809 16.10065939 18.06859424
Cu 18.05247616 14.48315569 3.64987036
Cu 0.01563976 16.23124130 5.47346679
Cu 1.85340176 14.47814795 5.45521447
Cu 1.79170293 16.23260230 3.62251045
Cu 0.02061203 14.39415082 7.21974161
Cu 18.01546046 16.19740398 8.99522735
Cu 1.89308200 14.50573555 9.04889627
Cu 1.73303484 16.23001663 7.29762615
Cu 18.06050602 14.43910587 10.77201001
Cu 0.08741088 16.28712116 12.59103041
Cu 1.79427389 14.43251249 12.64169849
Cu 1.85164236 16.30629400 10.78466861
Cu 0.03309407 14.39763002 14.49131124
Cu 0.04638861 16.15574927 16.35410163
Cu 1.78357704 14.39703480 16.23075197
Cu 1.69743216 16.36666394 14.46970666
Cu 3.63237644 0.03226986 0.03584738
Cu 3.61778831 1.79323075 1.89341348
Cu 5.40754723 17.96791843 1.79878765
Cu 5.39258263 1.76667944 0.03661596
Cu 3.54793766 18.02519780 3.71430882
Cu 3.53634547 1.80385369 5.52925576
Cu 5.38421444 0.00668178 5.47933532
Cu 5.39052718 1.77153972 3.62870592
Cu 3.65720505 0.03407187 7.32563060
Cu 3.55818676 1.84315570 9.10952531
Cu 5.41094596 0.06110353 9.04501001
Cu 5.31976967 1.86211918 7.24097637
Cu 3.64906825 0.02277527 10.87142743
Cu 3.70589321 1.83908423 12.68143520
Cu 5.41287630 0.00498628 12.60854853
Cu 5.39065414 1.74659365 10.82619033
Cu 3.55973927 0.02532724 14.49362003
Cu 3.65770730 1.75340859 16.31458490
Cu 5.35362234 18.01241052 16.28814597
Cu 5.44580064 1.73653741 14.50512560
Cu 3.59332289 3.61431720 0.00352757
Cu 3.67162100 5.40388458 1.79555039
Cu 5.35516179 3.61397634 1.76917116
Cu 5.44929814 5.37608888 0.10445547
Cu 3.56486448 3.67006167 3.62384793
Cu 3.63795995 5.35186806 5.44125641
Cu 5.51021265 3.64924639 5.39510331
Cu 5.34109111 5.37109595 3.68547214
Cu 3.66716467 3.76135678 7.21439579
Cu 3.69548667 5.45338181 9.09196236
Cu 5.52751209 3.69430419 9.00881043
Cu 5.49951506 5.42990736 7.27181374
Cu 3.68916942 3.60282842 10.84361553
Cu 3.67622486 5.41335134 12.58292667
Cu 5.42569403 3.64801467 12.69242364
Cu 5.52444445 5.57449794 10.74364895
Cu 3.62427771 3.63000059 14.39504134
Cu 3.67629708 5.38758883 16.28990889
Cu 5.39464568 3.58189330 16.24816316
Cu 5.49974147 5.38388565 14.49772851
Cu 3.63116118 7.18299617 18.06345183
Cu 3.61325941 8.98853157 1.76594256
Cu 5.52790537 7.12018370 1.91912191
Cu 5.44698639 9.12484429 0.06815378
Cu 3.60868218 7.13386209 3.57822259
Cu 3.58930015 9.02388037 5.41248910
Cu 5.44675654 7.17918787 5.47140045
Cu 5.41435217 8.88512042 3.61712782
Cu 3.64820289 7.18265205 7.25489520
Cu 3.64134437 9.03875572 9.00510743
Cu 5.49136292 7.27230855 9.03519562
Cu 5.44229964 9.05495147 7.24325754
Cu 3.57864082 7.21033996 10.82832850
Cu 3.60384112 8.99201003 12.64701450
Cu 5.42979360 7.22370084 12.64377962
Cu 5.44594983 8.94851621 10.88553350
Cu 3.70476130 7.14296177 14.45694592
Cu 3.64881814 8.95463170 16.24781879
Cu 5.49798015 7.27056799 16.34092269
Cu 5.45343005 8.98001259 14.45738995
Cu 3.69174455 10.78241382 18.02762808
Cu 3.71388498 12.69055880 1.78289022
Cu 5.41708525 10.76385993 1.87940421
Cu 5.38772185 12.63647444 18.04064984
Cu 3.57454563 10.84734048 3.62314072
Cu 3.56571804 12.64633942 5.35904213
Cu 5.36121648 10.84283718 5.41063843
Cu 5.32330536 12.60119236 3.66708057
Cu 3.59819427 10.77893867 7.20842807
Cu 3.62593996 12.66585654 9.05688822
Cu 5.49604651 10.88738396 9.01534595
Cu 5.32304228 12.62839234 7.19215786
Cu 3.67688220 10.80090974 10.81806575
Cu 3.67903031 12.68183466 12.65436542
Cu 5.43534765 10.80227353 12.68799892
Cu 5.40052992 12.65285459 10.86113409
Cu 3.62495517 10.86818395 14.49889848
Cu 3.55361226 12.63425484 16.23968016
Cu 5.43216148 10.78690510 16.27067392
Cu 5.40583935 12.55706036 14.54185898
Cu 3.58618434 14.46507243 18.03545744
Cu 3.60360008 16.31095995 1.88797898
Cu 5.38251696 14.51148939 1.79532014
Cu 5.47325428 16.18124292 18.06329632
Cu 3.62786090 14.63009069 3.75860970
Cu 3.65459241 16.23115644 5.57561333
Cu 5.38466743 14.45763083 5.42085615
Cu 5.47608359 16.29167429 3.60420706
Cu 3.66387399 14.41314321 7.29793235
Cu 3.56807897 16.31766851 9.06188591
Cu 5.45913231 14.42725268 9.14134691
Cu 5.40499090 16.23486678 7.34587268
Cu 3.61963085 14.44204260 10.86492250
Cu 3.63277205 16.25892610 12.66367928
Cu 5.45379188 14.40979687 12.73642910
Cu 5.36742566 16.24182991 10.88581040
Cu 3.53246956 14.49907905 14.42677234
Cu 3.59326658 16.27130125 16.25228256
Cu 5.39086576 14.44630677 16.23320733
Cu 5.37325516 16.33392547 14.41344053
Cu 7.23174947 0.04497400 0.05202866
Cu 7.19948022 1.83832219 1.86917869
Cu 9.00772933 0.00671326 1.87687151
Cu 9.13411122 1.80503855 0.06393310
Cu 7.19921308 18.06351767 3.70802066
Cu 7.28059788 1.82839694 5.38758031
Cu 8.95476258 18.04449865 5.40952102
Cu 9.03698133 1.84329261 3.67386769
Cu 7.20435780 0.01578721 7.34379007
Cu 7.26210189 1.76096273 9.09755201
Cu 8.98923936 18.03321772 9.11938358
Cu 8.98647446 1.84199835 7.24673014
Cu 7.19262074 18.01145723 10.90669979
Cu 7.30307881 1.69347201 12.65795628
Cu 9.04957633 17.97990993 12.66071209
Cu 9.09083051 1.80437104 10.83401220
Cu 7.24491318 18.04196456 14.51367745
Cu 7.18531909 1.84945828 16.36018140
Cu 9.03701703 18.05456234 16.24258409
Cu 9.03634412 1.84035779 14.48437315
Cu 7.20291928 3.63119687 0.05506045
Cu 7.24368246 5.33903615 1.89661095
Cu 9.09519019 3.59094866 1.79155941
Cu 9.07357138 5.36278165 0.06778272
Cu 7.23257188 3.64673187 3.64341404
Cu 7.24406093 5.39412123 5.48922072
Cu 8.95173018 3.60650078 5.44355935
Cu 9.07810809 5.33627235 3.55289993
Cu 7.26103318 3.61501624 7.22100418
Cu 7.35492001 5.46414034 8.99039850
Cu 9.03264854 3.58827318 8.98159021
Cu 9.07147796 5.33390971 7.19893826
Cu 7.25635626 3.63654245 10.87543981
Cu 7.30992625 5.39409702 12.63496099
Cu 9.12659014 3.67520669 12.61734047
Cu 9.12395205 5.45206739 10.84120608
Cu 7.25396438 3.50238539 14.49337319
Cu 7.31877232 5.37606119 16.39238679
Cu 9.02439312 3.52333134 16.31449937
Cu 9.00895052 5.36580273 14.48916354
Cu 7.37233324 7.27964402 0.07082428
Cu 7.25118457 9.03339680 1.80784612
Cu 9.10624955 7.16952669 1.89490348
Cu 8.98633112 9.07376342 0.04273773
Cu 7.25562838 7.09989753 3.68322599
Cu 7.20554294 9.06173968 5.48213020
Cu 9.04238677 7.16376942 5.38141220
Cu 8.93299673 9.04443675 3.65656719
Cu 7.30293111 7.29894938 7.24071426
Cu 7.23569297 9.13054393 9.04949488
Cu 9.04638249 7.35042242 9.02166010
Cu 9.02998642 9.11290771 7.12830475
Cu 7.24900327 7.31083241 10.89958091
Cu 7.19868898 9.09024343 12.68709512
Cu 9.00650688 7.25618279 12.71293443
Cu 9.00219157 9.02936713 10.81092220
Cu 7.24239562 7.21955189 14.44009706
Cu 7.20312504 8.96141150 16.26704538
Cu 9.05685812 7.25376119 16.24223020
Cu 9.07430482 9.09456984 14.59902188
Cu 7.19621636 10.94428523 0.03835202
Cu 7.10102378 12.57402685 1.77755128
Cu 8.93378149 10.85353772 1.81488341
Cu 8.95274475 12.62369990 18.02975681
Cu 7.18611169 10.82698426 3.56541264
Cu 7.12904733 12.66829417 5.32261335
Cu 8.93273311 10.98389438 5.32062367
Cu 9.03004615 12.77043168 3.60925094
Cu 7.22426046 10.97548471 7.24850750
Cu 7.22502071 12.64476909 9.05315592
Cu 9.12325155 10.85675299 9.03550549
Cu 9.04772434 12.70179194 7.28655589
Cu 7.20176984 10.86723637 10.82519135
Cu 7.29098708 12.66073372 12.64769603
Cu 9.03784002 10.82458484 12.60194783
Cu 9.01515042 12.68588366 10.77859871
Cu 7.33173339 10.83299206 14.46162764
Cu 7.16386994 12.62877940 16.30585807
Cu 9.01365919 10.83608352 16.28720535
Cu 9.20262446 12.65591554 14.43929270
Cu 7.27476863 14.40037915 18.05600851
Cu 7.28834203 16.29476255 1.86250375
Cu 9.01430929 14.40133116 1.79480104
Cu 9.02510890 16.21922156 18.05432309
Cu 7.30558413 14.51733926 3.59994452
Cu 7.15708746 16.31691595 5.51431368
Cu 9.02094883 14.47895271 5.51201123
Cu 8.99274919 16.35990666 3.61285979
Cu 7.21031078 14.46722327 7.29942350
Cu 7.14810743 16.27995046 9.05905717
Cu 9.04984986 14.60465400 9.02694783
Cu 9.03350286 16.33372622 7.25475634
Cu 7.26655122 14.55673100 10.85530888
Cu 7.09414898 16.19215965 12.72529295
Cu 9.00933656 14.58692624 12.57266765
Cu 9.10412431 16.31601575 10.85537815
Cu 7.29121263 14.40641304 14.54823021
Cu 7.17341058 16.28783515 16.22842431
Cu 9.05252498 14.52025144 16.27101164
Cu 9.03064072 16.21200540 14.50214156
Cu 10.86530683 0.01097366 0.06577224
Cu 10.87377420 1.88985739 1.78074962
Cu 12.69522796 18.03623280 1.86667385
Cu 12.68205560 1.87678752 18.00848299
Cu 10.85527075 18.06295099 3.57144518
Cu 10.86736857 1.79743163 5.43399895
Cu 12.62725411 18.07411984 5.36307185
Cu 12.63436904 1.81550012 3.57774743
Cu 10.84623685 18.00615087 7.19600980
Cu 10.86713752 1.66519629 8.98653244
Cu 12.73695898 17.96365495 9.03824911
Cu 12.59037031 1.83063735 7.14040230
Cu 10.84194332 17.97148676 10.80030387
Cu 10.83029909 1.81372426 12.64714679
Cu 12.73099129 18.04053238 12.66831159
Cu 12.68135217 1.77729900 10.80170882
Cu 10.80363754 0.06897392 14.42104271
Cu 10.86518904 1.77659026 16.28296905
Cu 12.71188598 17.91309517 16.25350247
Cu 12.62708292 1.78800395 14.50731997
Cu 10.91815355 3.67508928 18.06245117
Cu 10.85978496 5.40678373 1.77064794
Cu 12.67793603 3.66188955 1.68493305
Cu 12.77610384 5.42393411 18.01189719
Cu 10.88092748 3.66845836 3.61861403
Cu 10.87663303 5.40289048 5.43748947
Cu 12.61411131 3.65224402 5.39250176
Cu 12.78064473 5.50004465 3.63012988
Cu 10.76092239 3.63926830 7.30165358
Cu 10.76937617 5.54520847 8.96934544
Cu 12.64237041 3.68209098 8.96583195
Cu 12.62579698 5.49657368 7.24423019
Cu 10.86040273 3.54242120 10.86416007
Cu 10.85890344 5.45387473 12.69574580
Cu 12.67964724 3.65950695 12.63517810
Cu 12.57371004 5.41693158 10.81271399
Cu 10.87585520 3.68356050 14.37768634
Cu 10.85834287 5.46712111 16.15384834
Cu 12.70824136 3.73470929 16.21573840
Cu 12.72318207 5.48954354 14.46297332
Cu 10.82644091 7.17530232 17.98209787
Cu 10.83089008 9.05586385 1.77425996
Cu 12.61991834 7.28611719 1.62273270
Cu 12.60759836 9.14780924 18.01540949
Cu 10.85537275 7.23395738 3.50979293
Cu 10.75513796 9.12066219 5.37368318
Cu 12.60706316 7.26605290 5.41362170
Cu 12.60645361 9.04944282 3.58917124
Cu 10.85164263 7.30078355 7.21850186
Cu 10.83835697 9.02584516 9.13015462
Cu 12.68719143 7.23647152 9.08701857
Cu 12.59526295 9.05413692 7.25238124
Cu 10.83773338 7.20917522 10.87983572
Cu 10.90335188 9.10887011 12.65624666
Cu 12.65687398 7.35210040 12.58916607
Cu 12.67125419 9.16537898 10.81210066
Cu 10.87285935 7.25481537 14.34405434
Cu 10.81185555 9.05884358 16.29085665
Cu 12.71540596 7.36928347 16.29534726
Cu 12.65186786 9.05678405 14.40942423
Cu 10.79277669 10.93069953 17.99774365
Cu 10.76041606 12.66112133 1.75902479
Cu 12.55381803 10.88183799 1.88274329
Cu 12.61312910 12.68327262 0.05891638
Cu 10.82315855 10.87941418 3.70817178
Cu 10.76888862 12.66503600 5.49564797
Cu 12.56235771 10.84699707 5.44599951
Cu 12.67851143 12.61662759 3.63230203
Cu 10.78199973 10.86423927 7.25712569
Cu 10.82438675 12.70876766 8.99811119
Cu 12.53398872 10.83245734 8.99230105
Cu 12.68003151 12.65632258 7.22735140
Cu 10.85749863 10.83736121 10.89602856
Cu 10.91791439 12.64545954 12.61069370
Cu 12.74755372 10.86199157 12.67874686
Cu 12.53625703 12.53173085 10.83757162
Cu 10.86967570 10.76735466 14.42192107
Cu 10.78230989 12.69085395 16.34317231
Cu 12.61896176 10.88305608 16.21367590
Cu 12.66617536 12.68369938 14.59706846
Cu 10.88595676 14.45033133 0.02196259
Cu 10.83748595 16.20459900 1.76124501
Cu 12.67633507 14.42775289 1.90048446
Cu 12.75505817 16.20139738 0.01616824
Cu 10.78568513 14.51994175 3.58790750
Cu 10.84019414 16.27279053 5.36035268
Cu 12.61109431 14.36052227 5.36509498
Cu 12.62281245 16.21910561 3.67580007
Cu 10.84675009 14.48327043 7.19409880
Cu 10.89973319 16.26190525 8.98120222
Cu 12.72973411 14.50395747 9.06065244
Cu 12.66691110 16.31863548 7.22951359
Cu 10.90453497 14.48503022 10.84590372
Cu 10.92915067 16.24148283 12.71123268
Cu 12.67905890 14.46374068 12.65090922
Cu 12.77945864 16.29158671 10.87039756
Cu 10.87422374 14.46117548 14.41079986
Cu 10.84515817 16.23147114 16.24992385
Cu 12.66111173 14.40557578 16.27969416
Cu 12.68327408 16.22610138 14.50356215
Cu 14.54215437 18.02652443 18.00995511
Cu 14.41423342 1.79336676 1.68437753
Cu 16.28110113 17.96237635 1.80687002
Cu 16.33265906 1.71520183 18.06449432
Cu 14.40911454 0.02328845 3.68592150
Cu 14.45372208 1.79168501 5.36145456
Cu 16.20577133 0.00088016 5.51712710
Cu 16.23308527 1.75953830 3.61109025
Cu 14.50708363 18.03256939 7.21498276
Cu 14.40686418 1.80638191 8.99463000
Cu 16.31387065 0.08841839 8.98505837
Cu 16.29903816 1.85217114 7.15248279
Cu 14.48581179 0.03803999 10.90938202
Cu 14.34631800 1.84386729 12.60624456
Cu 16.29626238 0.06290810 12.69969118
Cu 16.25051649 1.79232209 10.78839462
Cu 14.46397910 0.01589236 14.45449852
Cu 14.40290794 1.89897253 16.25264499
Cu 16.27120532 0.02675865 16.21582064
Cu 16.17639950 1.81308939 14.46945839
Cu 14.60579780 3.58032762 18.06555308
Cu 14.49865985 5.45726837 1.78067195
Cu 16.18524517 3.60070097 1.84363285
Cu 16.31774149 5.52718187 17.97106441
Cu 14.42599599 3.61754701 3.57113672
Cu 14.40886889 5.49237012 5.43601025
Cu 16.22940157 3.61521021 5.41227559
Cu 16.16798736 5.42102345 3.58597310
Cu 14.43749241 3.58772536 7.06906151
Cu 14.42620690 5.51005685 9.05909390
Cu 16.18801230 3.71266378 8.97316608
Cu 16.23852012 5.43041790 7.14566613
Cu 14.29060139 3.63092388 10.72434835
Cu 14.42660231 5.45720386 12.58095907
Cu 16.22990616 3.58988199 12.69690818
Cu 16.22328666 5.40169872 10.85472578
Cu 14.44223847 3.65856161 14.48890146
Cu 14.55541944 5.51283711 16.18828212
Cu 16.27080928 3.56881512 16.13923110
Cu 16.28774411 5.48755120 14.39928043
Cu 14.49215139 7.26667540 18.06122524
Cu 14.43635231 9.16395988 1.71351557
Cu 16.30929216 7.29781636 1.71106167
Cu 16.37055927 9.02743618 18.01938938
Cu 14.33732845 7.36979561 3.54955910
Cu 14.33536794 9.09062568 5.43901458
Cu 16.21421415 7.23805746 5.38894732
Cu 16.17982704 8.96484642 3.53899774
Cu 14.46607441 7.22028957 7.15965679
Cu 14.40816690 9.09970012 8.85606469
Cu 16.32295429 7.22756437 8.99382646
Cu 16.34873725 9.06533142 7.19643312
Cu 14.61860101 7.25077629 10.79689285
Cu 14.57375371 9.15661785 12.70198444
Cu 16.34693751 7.23231247 12.65057038
Cu 16.25371118 9.16529692 10.82618910
Cu 14.46848442 7.27097752 14.32433816
Cu 14.57121561 9.05215924 16.18000537
Cu 16.30389359 7.22185694 16.16864159
Cu 16.33902524 9.09518276 14.45044090
Cu 14.47138716 10.95662986 17.96827960
Cu 14.46757099 12.60007870 1.91198788
Cu 16.27571282 10.71692293 1.79821735
Cu 16.27405162 12.61681053 0.06564573
Cu 14.47888462 10.87580464 3.62643367
Cu 14.43762893 12.59759454 5.37968593
Cu 16.29481537 10.84880352 5.36623285
Cu 16.29946763 12.64249316 3.59730858
Cu 14.46986851 10.83279685 7.20992890
Cu 14.37474369 12.61939113 9.00336824
Cu 16.26933729 10.78481506 8.98136965
Cu 16.22420811 12.63295275 7.22602827
Cu 14.44828983 10.83130652 10.80152327
Cu 14.43163577 12.74022358 12.62353073
Cu 16.33394338 11.05644751 12.64904769
Cu 16.24691794 12.71003723 10.75990625
Cu 14.46283428 10.91789324 14.46467854
Cu 14.46275196 12.63724903 16.25593331
Cu 16.26956759 10.87728406 16.22352331
Cu 16.29203778 12.66487917 14.42757491
Cu 14.46495572 14.45054510 0.08167090
Cu 14.43665371 16.25584993 1.89888573
Cu 16.23054390 14.38537336 1.94466169
Cu 16.28475322 16.28266879 18.04679425
Cu 14.41315164 14.41495619 3.69183543
Cu 14.37391645 16.20489054 5.49446556
Cu 16.27098629 14.44008918 5.43159363
Cu 16.24620934 16.33959127 3.67434272
Cu 14.43924104 14.33944658 7.21448869
Cu 14.47389002 16.29299925 9.06133346
Cu 16.20867628 14.43643635 8.95191517
Cu 16.20090630 16.14613553 7.17394336
Cu 14.45967429 14.39600313 10.86973738
Cu 14.64033069 16.28325382 12.75560926
Cu 16.25075586 14.38643881 12.77327009
Cu 16.28577408 16.27333872 10.87848516
Cu 14.51442277 14.46240600 14.54074746
Cu 14.55751829 16.20126758 16.28464372
Cu 16.27119062 14.37842646 16.36306501
Cu 16.35108996 16.31992807 14.55243120
