500
Final configuration Lattice="17.60000000 0 0  0 17.60000000 0  0 0 17.60000000" Properties=species:S:1:pos:R:3
Ni 0.02064179 17.58737215 0.06090993
Ni 17.52291656 1.66567468 1.84778080
Ni 1.72922691 17.52853709 1.77669550
Ni 1.83954124 1.73744215 0.07778247
Ni 17.56556312 17.52252249 3.61591351
Ni 17.51642438 1.59853463 5.38720416
Ni 1.88512689 17.58415270 5.37899186
Ni 1.71233661 1.45748694 3.65047456
Ni 17.40715664 17.54129157 7.09518756
Ni 17.55939722 1.77469956 8.91257168
Ni 1.70628991 17.52640742 8.69676068
Ni 1.77174687 1.61576506 7.26240823
Ni 17.56019846 17.57400533 10.38866870
Ni 17.59553013 1.66528575 12.15487581
Ni 1.63824939 17.58331485 12.30378786
Ni 1.78446586 1.69060783 10.52681884
Ni 17.53163666 0.16909456 14.16105269
Ni 0.01137004 1.88113917 15.88103979
Ni 1.66208012 0.01454272 15.60843670
Ni 1.90200430 1.86931536 13.91205637
Ni 0.17149013 3.51858720 0.08906161
Ni 0.22123402 5.27086608 1.66508879
Ni 1.85791425 3.39254542 2.01002735
Ni 1.86965725 5.25618485 17.53207674
Ni 0.06934210 3.46819887 3.55254281
Ni 0.05318169 5.26192591 5.11699460
Ni 1.65339691 3.33860353 5.37007621
Ni 1.87909500 5.37174192 3.58103116
Ni 0.01481764 3.58791218 7.06920261
Ni 0.15150945 5.29233074 8.91744300
Ni 1.73844784 3.43152079 8.86917340
Ni 1.67603210 5.16605580 7.09450311
Ni 17.53683422 3.52231726 10.51446766
Ni 0.00446987 5.19714114 12.40163548
Ni 1.91976276 3.49128212 12.33256183
Ni 1.77283065 5.26974416 10.70845985
Ni 0.04250729 3.33366859 13.91291922
Ni 0.16431337 5.12830368 15.79604684
Ni 1.81147889 3.43456323 15.58311564
Ni 2.05705052 5.35367029 13.99155354
Ni 0.05658285 6.86178674 17.58413535
Ni 0.30425712 8.91268486 1.58582992
Ni 1.97980284 7.17027990 1.63341145
Ni 1.87753605 8.86929062 17.35925693
Ni 0.14651801 7.07956845 3.59413011
Ni 0.05983806 8.90186459 5.16156547
Ni 1.79922462 6.98254686 5.28450774
Ni 1.79095534 8.91402298 3.43507750
Ni 0.06246623 6.89357663 7.09193107
Ni 0.20585775 8.66888359 8.89542251
Ni 1.84239695 7.02342752 8.85326869
Ni 1.53929302 8.81551240 6.93764877
Ni 0.16921701 7.08880177 10.57909057
Ni 17.59171338 8.76293796 12.29120384
Ni 1.77457371 6.98111592 12.32707303
Ni 1.93415989 8.73442192 10.67094363
Ni 0.08062498 7.06546835 14.12486622
Ni 0.14306674 8.90137795 15.75259817
Ni 1.80111285 6.92230649 15.93966750
Ni 1.89396260 8.73192591 14.17037736
Ni 17.52688697 10.57652294 17.41051065
Ni 17.40325297 12.32517978 1.80129412
Ni 1.73354637 10.70966071 1.77124756
Ni 1.69225258 12.38952689 17.43116758
Ni 17.57390461 10.67539974 3.46647722
Ni 17.55815794 12.46332846 5.17131397
Ni 1.81333840 10.74530375 5.29363750
Ni 1.66681185 12.44849474 3.47527504
Ni 0.11239258 10.57961105 7.11863219
Ni 0.01353078 12.14137377 8.83851461
Ni 1.72950784 10.45620608 9.02079973
Ni 1.72789418 12.23057609 7.12775743
Ni 0.02360746 10.48772695 10.67248403
Ni 17.45042480 12.30275037 12.40114276
Ni 1.64107040 10.47909547 12.38072555
Ni 1.65202873 12.24279599 10.59638036
Ni 17.58337988 10.45582544 14.06538933
Ni 17.49290498 12.24419896 15.71013095
Ni 1.79197673 10.70392422 15.69199782
Ni 1.76710869 12.33364783 14.06916836
Ni 17.54162499 14.15253637 17.58918853
Ni 17.46598680 15.83421706 1.65774821
Ni 1.58067973 14.00317920 1.60837035
Ni 1.57656361 15.91236218 0.04619006
Ni 17.33187912 14.30717880 3.72085966
Ni 0.11886734 15.94742465 5.31004911
Ni 1.72013074 14.13526771 5.23533257
Ni 1.56589987 15.78049613 3.44653649
Ni 0.10342712 13.97825589 7.08204711
Ni 17.53792921 15.67880509 9.02553725
Ni 1.75112736 14.17379257 8.76847016
Ni 1.88797298 15.82742562 6.96961090
Ni 0.09026364 14.05760429 10.58435669
Ni 17.46745906 15.74939391 12.41633885
Ni 1.71934212 14.22536128 12.12567113
Ni 1.71040399 16.00274254 10.48490815
Ni 0.14034844 14.04033064 14.02798411
Ni 17.34068529 15.87937007 15.79429187
Ni 1.70443064 14.18741393 15.74622608
Ni 1.90635876 15.78572083 14.09130019
Ni 3.61876390 0.05772940 0.17834045
Ni 3.50062407 1.76689525 1.98213017
Ni 5.25375125 17.59689659 1.80158728
Ni 5.25297844 1.82414930 0.12434366
Ni 3.48953587 17.47971670 3.53745820
Ni 3.54748782 1.77817034 5.38673699
Ni 5.13933700 0.01482433 5.28905484
Ni 5.12849193 1.89948423 3.62628629
Ni 3.64735257 0.10349115 7.18502591
Ni 3.57246963 1.84575558 8.88843967
Ni 5.24953749 0.09874153 8.76801927
Ni 5.36749588 1.84456182 7.08015833
Ni 3.46284761 17.52491927 10.50224589
Ni 3.61165781 1.62513814 12.26057100
Ni 5.24927242 17.45456181 12.40692788
Ni 5.43958976 1.52620464 10.68738604
Ni 3.59960228 17.33089598 14.00851839
Ni 3.52046275 1.65180933 15.58144046
Ni 5.19518566 17.49700721 15.65290886
Ni 5.22741220 1.72237284 13.80236550
Ni 3.47791558 3.56648586 0.13223567
Ni 3.51023592 5.36217285 1.68901076
Ni 5.17855391 3.58920394 1.88837808
Ni 5.34245812 5.25667607 17.53623283
Ni 3.47197300 3.59036690 3.72568708
Ni 3.51917152 5.28360821 5.48934230
Ni 5.33797499 3.65043365 5.42621120
Ni 4.94946596 5.38815331 3.67799665
Ni 3.45252446 3.42506294 7.11034793
Ni 3.46689011 5.02721563 8.79090004
Ni 5.45895678 3.34309718 8.97575147
Ni 5.28622599 5.27799608 7.17212689
Ni 3.65941252 3.53080430 10.61447495
Ni 3.75195546 5.08813469 12.30066186
Ni 5.48501573 3.34016131 12.16312252
Ni 5.41997533 5.16469204 10.45697327
Ni 3.69323499 3.60570897 14.06199692
Ni 3.55462949 5.23836779 15.75296606
Ni 5.27594074 3.48084945 15.77411761
Ni 5.40864359 5.13857789 14.08053536
Ni 3.52255811 7.05445871 17.48855915
Ni 3.56839757 8.88432671 1.55759050
Ni 5.19381200 7.22640080 1.65965100
Ni 5.29711184 8.74092236 17.41830777
Ni 3.54894059 7.19776881 3.35246850
Ni 3.32507992 8.79462134 5.26885391
Ni 5.21462080 7.08331101 5.39366619
Ni 5.28490533 8.93825367 3.58698636
Ni 3.36600737 7.09435039 7.14703283
Ni 3.47179861 8.76821230 8.85453705
Ni 5.33329491 7.03662280 8.91757618
Ni 5.11382880 8.86250737 7.00096447
Ni 3.73221241 6.85990150 10.55053213
Ni 3.64433338 8.78631482 12.45604465
Ni 5.30868328 7.03004535 12.30058905
Ni 5.45201788 8.80360599 10.68227404
Ni 3.53999700 7.18329092 14.00452815
Ni 3.65495292 9.03356050 15.76743897
Ni 5.25831586 6.95071970 15.78837029
Ni 5.26543256 8.83067186 14.10381144
Ni 3.56033441 10.61527903 17.55833795
Ni 3.37675086 12.41802901 1.80580875
Ni 5.30916292 10.53586284 1.78212998
Ni 5.10790572 12.39450360 0.15666935
Ni 3.41933080 10.61122770 3.63249602
Ni 3.44527900 12.51098838 4.95309836
Ni 5.28218766 10.58950419 5.31775817
Ni 5.27001235 12.18534830 3.45345813
Ni 3.31635958 10.43695046 6.97137333
Ni 3.40002492 12.25673907 8.91308752
Ni 5.18602943 10.47188956 8.74611729
Ni 5.09265651 12.37844978 6.84960040
Ni 3.61265997 10.50431468 10.58801829
Ni 3.48987593 12.35616209 12.13272522
Ni 5.11995584 10.71271398 12.38917804
Ni 5.23182037 12.34612447 10.48689135
Ni 3.48121250 10.78231479 13.96578131
Ni 3.40986467 12.48220906 15.73387447
Ni 5.24116397 10.67620732 15.69580995
Ni 5.23494749 12.42600424 14.03966487
Ni 3.36704004 14.17048116 0.02881683
Ni 3.41925807 15.78220339 1.74417685
Ni 5.17662287 13.97223099 1.82993561
Ni 5.20438668 15.87638155 0.14802955
Ni 3.42725807 14.28435359 3.51130045
Ni 3.60865648 15.82052915 5.29349584
Ni 5.24244534 14.11432533 5.18392716
Ni 5.33911394 15.85813913 3.56735415
Ni 3.51224009 14.04078391 6.94832326
Ni 3.64560440 15.91877786 8.86838509
Ni 5.27091423 13.96567812 8.80085292
Ni 5.29669517 15.82945190 7.18198921
Ni 3.42605951 14.13866922 10.46582397
Ni 3.54065108 15.89008121 12.20840376
Ni 5.27457898 14.29792100 12.22963298
Ni 5.28351193 15.94525257 10.43274192
Ni 3.45133562 14.13036328 13.87464192
Ni 3.42777878 15.87736659 15.91993351
Ni 5.13705224 14.15668591 15.83358359
Ni 5.36926068 15.72342441 13.90589598
Ni 6.93611240 17.58504281 17.53905560
Ni 6.90132619 1.76790913 1.83302986
Ni 8.78331844 0.26365789 1.65830530
Ni 8.64874705 1.86546846 17.50222401
Ni 7.17466693 0.08422000 3.41717414
Ni 7.00556110 1.64159191 5.23237389
Ni 8.79315680 0.00464142 5.26659499
Ni 8.76462125 1.94676295 3.58859572
Ni 6.95624037 17.55734107 6.93949873
Ni 7.24414380 1.65034916 8.78507816
Ni 8.83656859 17.54464223 8.85060358
Ni 8.86940614 1.68423643 7.08053277
Ni 7.11492530 17.49706416 10.53219811
Ni 7.09883362 1.58008763 12.32125272
Ni 8.83469740 17.41771674 12.46260927
Ni 8.94837750 1.60755840 10.52978928
Ni 6.95942493 17.57294453 14.10971592
Ni 6.84545202 1.64755846 15.82716252
Ni 8.89109933 17.47933607 15.81428621
Ni 8.80232983 1.69871494 14.06802011
Ni 7.04709264 3.52735363 0.00643928
Ni 6.89393010 5.50487315 1.89320355
Ni 8.51502715 3.54949616 1.72793355
Ni 8.57372962 5.22298306 0.03005279
Ni 6.88778654 3.54726083 3.48620659
Ni 6.91322958 5.37937050 5.29135583
Ni 8.93083344 3.46816312 5.38260572
Ni 8.69653002 5.27478769 3.74253690
Ni 7.01093001 3.60245341 7.04293683
Ni 7.12008087 5.30695186 8.71252985
Ni 8.90705914 3.53527660 8.77257739
Ni 8.90710113 5.36653279 7.04322573
Ni 7.19261713 3.32756479 10.61930884
Ni 6.86240289 5.20880056 12.19787064
Ni 8.87532459 3.47891172 12.22076594
Ni 8.67313288 5.43300621 10.62525001
Ni 7.04392339 3.38833462 13.97696053
Ni 6.99794719 5.19309538 15.78254961
Ni 8.74350222 3.55343589 15.64878581
Ni 8.84107200 5.25162710 13.92532173
Ni 6.86814747 7.08513020 0.00722583
Ni 7.05221161 8.81103645 1.66199295
Ni 8.74671773 7.12432276 1.59421611
Ni 8.85357337 8.69975155 17.45923219
Ni 6.96846719 7.25127620 3.56655448
Ni 6.96455032 8.85851714 5.29243961
Ni 8.67314363 7.03437411 5.33466048
Ni 8.98674213 8.75614007 3.57297297
Ni 6.83383351 7.06320972 7.12852125
Ni 6.95505131 8.88085930 8.76981234
Ni 8.84985609 7.13387419 8.68343980
Ni 8.85800577 8.84421893 7.12278092
Ni 7.05021792 7.14570100 10.53576931
Ni 6.99246190 8.79831263 12.41167995
Ni 8.62864165 7.01458846 12.26413926
Ni 8.67508624 8.71314496 10.52527193
Ni 6.84471297 6.91397753 14.14014769
Ni 6.93595863 8.72007002 15.82654891
Ni 8.63608753 7.01583162 15.83570303
Ni 8.80532647 8.74388947 13.94990808
Ni 6.94404402 10.54957370 17.41985015
Ni 7.02229367 12.28454543 1.72138398
Ni 8.75199573 10.45493838 1.57027447
Ni 8.78530584 12.44060022 0.09831464
Ni 7.14745555 10.47456565 3.48331728
Ni 7.17128324 12.28756959 5.16089894
Ni 8.99460553 10.56497312 5.14054870
Ni 8.81920437 12.16671079 3.35497653
Ni 7.07025116 10.55547474 6.99019858
Ni 6.95589493 12.31569918 8.74752918
Ni 8.60131431 10.56749953 8.73710993
Ni 8.81084277 12.41312839 6.99022376
Ni 7.01287005 10.65845947 10.52564199
Ni 6.69266743 12.31526650 12.21826074
Ni 8.76295341 10.65179060 12.44794885
Ni 8.82107082 12.34069306 10.43959618
Ni 6.99994899 10.54313289 14.12035970
Ni 6.85278194 12.49121810 15.96100888
Ni 8.76407759 10.41251499 15.74770491
Ni 8.45301778 12.33402648 14.06956279
Ni 7.06246553 14.18514558 0.07411117
Ni 7.09064881 15.88947064 1.72360279
Ni 8.80205212 14.17021198 1.66899266
Ni 8.77822861 15.79562393 17.44177113
Ni 7.09339559 14.12472947 3.52138810
Ni 6.99995404 15.88757579 5.29216980
Ni 9.00097924 14.08960774 5.33517703
Ni 8.70648802 15.97586235 3.47644525
Ni 6.96815713 14.04962874 6.88974027
Ni 6.90088284 15.82712969 8.79372650
Ni 8.72444603 13.86377593 8.71121032
Ni 8.81915252 15.83085505 7.03204278
Ni 7.06276265 14.19044313 10.54650978
Ni 7.01102141 15.92075043 12.26258757
Ni 8.72457290 13.93329092 12.45284353
Ni 8.86911022 15.86766979 10.55033724
Ni 6.96002721 14.14558610 14.04173725
Ni 6.93643321 15.75638926 15.82265222
Ni 8.61415121 14.04482329 15.85651129
Ni 8.76679141 15.76687753 14.16652937
Ni 10.58729635 17.47108149 0.01953666
Ni 10.42075858 2.01201851 1.64890140
Ni 12.25408468 0.23991227 1.77154713
Ni 12.24830556 1.91689252 17.52409679
Ni 10.50713741 0.25648921 3.39533157
Ni 10.64095250 1.75566997 5.35347678
Ni 12.20829147 17.55286010 5.16202675
Ni 12.29690077 1.93562383 3.62044250
Ni 10.55736832 17.55377379 7.01545880
Ni 10.58165190 1.60731132 8.81865013
Ni 12.27995140 17.59085100 8.90616059
Ni 12.29476135 1.65567530 7.10418152
Ni 10.62909090 0.00310341 10.62327260
Ni 10.56940741 1.88863433 12.32863828
Ni 12.16248121 0.09273071 12.48668464
Ni 12.23219476 1.84614371 10.55332397
Ni 10.59686158 0.12949077 14.29461254
Ni 10.53300421 1.75133217 15.98679291
Ni 12.50817379 17.51035190 15.86074797
Ni 12.34986605 1.93503406 14.24936190
Ni 10.40719996 3.76851130 17.44714578
Ni 10.34690339 5.24167849 1.69048824
Ni 12.34612185 3.51076438 1.68061097
Ni 12.37540743 5.31118236 17.58839878
Ni 10.40484476 3.69013328 3.36768670
Ni 10.67410763 5.54748973 5.43342297
Ni 12.33486792 3.49684645 5.30966568
Ni 12.35117740 5.31676413 3.45812034
Ni 10.49705114 3.49559659 7.19877447
Ni 10.51242831 5.46567308 8.78078894
Ni 12.28577038 3.55343803 8.92295699
Ni 12.46836389 5.24306400 7.03667699
Ni 10.62109986 3.61392580 10.46933954
Ni 10.53663342 5.26574365 12.27454834
Ni 12.44601045 3.71320589 12.40775161
Ni 12.37768554 5.31941776 10.58051169
Ni 10.63782639 3.70545056 14.03949848
Ni 10.30071123 5.33564457 15.78618570
Ni 12.31444873 3.73494663 15.79238728
Ni 12.31825610 5.33475887 14.17541266
Ni 10.46461638 7.02323545 17.55553125
Ni 10.51794781 8.64767754 1.68695679
Ni 12.47259629 7.09906659 1.55522384
Ni 12.39691874 9.03312713 17.59356072
Ni 10.60205840 6.87842571 3.39489463
Ni 10.67991043 8.71483885 5.35573676
Ni 12.45361347 7.12072841 5.32745756
Ni 12.29036558 8.66858588 3.48576104
Ni 10.73288136 7.17680443 7.26240260
Ni 10.54335251 8.78421151 8.88020432
Ni 12.44984757 7.04726643 8.77673770
Ni 12.48118547 8.71474653 7.12520890
Ni 10.60259114 7.21069990 10.60305114
Ni 10.36924847 8.92236848 12.22950485
Ni 12.45476264 7.06913638 12.40044806
Ni 12.31894334 8.72995137 10.51167535
Ni 10.56188846 7.07781598 14.13029976
Ni 10.67200237 8.75831637 15.61575184
Ni 12.33995370 7.07214900 15.77814670
Ni 12.34804960 8.65996066 14.03339863
Ni 10.47338790 10.37159231 17.56233053
Ni 10.55702779 12.29253402 1.75854578
Ni 12.35627581 10.50887839 1.78003438
Ni 12.39079147 12.26753475 0.01406303
Ni 10.58559548 10.54088897 3.43745898
Ni 10.63349600 12.24647170 5.08084802
Ni 12.34138637 10.44289579 5.06662315
Ni 12.47196889 12.28799795 3.46062497
Ni 10.52070149 10.55371628 7.06735676
Ni 10.70539403 12.29772145 8.71324258
Ni 12.38400050 10.47792651 8.75052396
Ni 12.27690398 12.16806000 6.98082824
Ni 10.41953288 10.47759402 10.54173432
Ni 10.59316447 12.35149504 12.42363153
Ni 12.30917576 10.52685966 12.37270214
Ni 12.26037940 12.21116416 10.55633502
Ni 10.42524219 10.60636162 14.01976755
Ni 10.54694425 12.37974164 15.90298823
Ni 12.28357294 10.50764056 15.70273394
Ni 12.35306225 12.39896032 14.06132658
Ni 10.60115955 14.13850168 0.04162544
Ni 10.60041743 15.89886454 2.00473038
Ni 12.29970403 14.16858669 1.74481599
Ni 12.40694131 15.88318719 0.06909479
Ni 10.56989226 13.96069926 3.38269880
Ni 10.57209624 15.94372769 5.06052526
Ni 12.17250326 14.03222195 5.19080413
Ni 12.40152594 15.77025136 3.51013546
Ni 10.75917061 14.06169889 7.10773551
Ni 10.56846910 15.81691350 8.91538328
Ni 12.28820824 14.14061541 8.96616340
Ni 12.37441173 15.96811827 7.20066403
Ni 10.56017629 14.01045088 10.64269764
Ni 10.64809645 15.77414148 12.41737233
Ni 12.33278515 14.11178856 12.32378739
Ni 12.27554867 15.82607480 10.71452907
Ni 10.53580746 14.09929843 14.04154691
Ni 10.50626722 15.58695309 15.86538529
Ni 12.29755221 14.03917328 16.02056045
Ni 12.41761110 15.81150924 14.21430722
Ni 14.01668217 0.06100333 0.10956052
Ni 14.15846300 1.85309396 1.72508472
Ni 15.79518173 17.55644327 1.71128305
Ni 15.91098393 1.93062205 17.45221945
Ni 14.15711222 0.10497391 3.64922379
Ni 13.94655241 1.69985355 5.33653045
Ni 15.85062584 17.50790768 5.20571663
Ni 15.75689222 1.81583717 3.56887142
Ni 14.02146417 17.56647241 7.00795741
Ni 14.16026744 1.71121167 8.85049166
Ni 15.84841108 17.53551418 8.87094835
Ni 15.70838949 1.74235050 7.09094893
Ni 13.87229581 17.59521591 10.63054781
Ni 13.89243456 1.69500457 12.34395665
Ni 15.78715890 17.53156509 12.42436129
Ni 15.73245761 1.64661411 10.45895748
Ni 13.98911871 0.02004510 14.13619697
Ni 14.17231473 1.80399207 15.99154522
Ni 15.73209812 0.12758436 15.91852515
Ni 15.61370875 1.54941885 14.08546071
Ni 14.05000328 3.46832947 0.04555447
Ni 14.12223285 5.37816756 1.65505127
Ni 15.85975046 3.40524234 1.75675405
Ni 16.00791184 5.10116759 0.00855621
Ni 13.93620481 3.61993948 3.42849942
Ni 14.30944759 5.45378023 5.13500692
Ni 15.69228114 3.30864733 5.26436302
Ni 15.93149808 5.13955114 3.38627170
Ni 14.03680641 3.38880136 7.13281763
Ni 14.14895616 5.32208897 8.91054710
Ni 15.88765257 3.60115465 8.61542520
Ni 15.82472982 5.15091225 6.98576105
Ni 14.18218815 3.49771503 10.53404693
Ni 14.16311551 5.40781274 12.25293973
Ni 15.74597674 3.28095345 12.48940714
Ni 15.89406753 5.21270759 10.77071953
Ni 14.13006112 3.65754895 14.14558621
Ni 14.27212539 5.25364648 16.08241351
Ni 15.98578115 3.52689500 15.67088383
Ni 15.90616211 5.46612802 14.11162632
Ni 14.21707208 7.10245578 0.02176278
Ni 14.20951501 8.94966463 1.56855131
Ni 16.09861952 6.82220645 1.71390204
Ni 15.99334932 8.53082970 17.55312508
Ni 14.29360907 6.98260901 3.43813778
Ni 14.28903613 8.79047832 5.11870109
Ni 15.98205863 7.07340301 5.28517227
Ni 15.99183112 8.82492314 3.20064919
Ni 14.19910260 6.96094631 7.07282903
Ni 14.14639795 8.71203281 8.80014573
Ni 15.98826677 6.92252267 8.88046632
Ni 15.97047350 8.64981579 7.08100614
Ni 14.13325596 7.09747983 10.46756377
Ni 14.19372436 8.63222747 12.30574306
Ni 15.99215273 6.99771116 12.39040440
Ni 15.86097502 8.79021428 10.50362590
Ni 14.10929334 7.07057069 14.29250716
Ni 13.96079229 8.92611828 15.73306230
Ni 16.04354085 7.12556099 15.70598299
Ni 15.79154266 8.90264638 14.07901811
Ni 14.21552180 10.46458095 17.48198629
Ni 14.03463108 12.27822376 1.71722595
Ni 15.82566632 10.48033882 1.72739425
Ni 15.86340066 12.36044721 17.40641509
Ni 14.23339824 10.53704469 3.38111925
Ni 14.25055384 12.38894494 5.44625616
Ni 15.88743999 10.56655736 5.18344044
Ni 15.92562875 12.40054293 3.64091154
Ni 14.32853732 10.43126540 6.88575219
Ni 14.06049825 12.22661114 8.69161763
Ni 15.94645584 10.41696599 8.77718931
Ni 15.96683986 12.25153327 7.23847966
Ni 14.18878049 10.53732106 10.47151286
Ni 14.18235680 12.22325542 12.35670679
Ni 15.96720806 10.49795883 12.42028163
Ni 15.88484224 12.22992659 10.56795851
Ni 14.08428918 10.66244978 14.01419848
Ni 14.22104946 12.34551266 15.82237694
Ni 15.92220742 10.51075465 15.82970531
Ni 15.90554614 12.25447308 14.02814990
Ni 13.93677435 14.01156846 0.08358254
Ni 13.89439101 16.01097514 1.84674608
Ni 15.60816402 13.99240762 1.72237470
Ni 15.66117740 15.69245651 0.10754736
Ni 14.10480409 14.08341987 3.68795309
Ni 14.03508209 15.83632526 5.40782226
Ni 15.72903375 14.15743345 5.45909746
Ni 15.67243117 15.86938715 3.39790584
Ni 14.00927117 13.99378411 7.13192337
Ni 14.08821105 15.70436225 8.95094716
Ni 15.92410138 13.93941222 8.82497751
Ni 15.86828997 15.75518422 7.13634153
Ni 13.88601830 13.93246553 10.55737029
Ni 14.02870591 15.85978280 12.30503790
Ni 15.96982139 14.01544083 12.38460948
Ni 15.79399637 15.93674300 10.72118658
Ni 14.20972426 14.13702297 13.97756937
Ni 14.15825893 15.91184682 15.76670449
Ni 15.89073951 14.17059371 15.78534846
Ni 15.88490250 15.91369297 13.94648507
