500
Final configuration Lattice="17.60000000 0 0  0 17.60000000 0  0 0 17.60000000" Properties=species:S:1:pos:R:3
Ni 8.51490022 15.42535684 12.70148203
Ni 8.36009385 0.77923740 17.40356001
Ni 3.90826246 13.16543617 15.11881025
Ni 6.55105512 17.32494794 2.34698269
Ni 14.81026150 10.37542941 8.41365483
Ni 1.47704505 8.23236094 0.71693856
Ni 5.53501878 11.04704626 8.56435301
Ni 15.43724773 4.81556988 1.78187411
Ni 17.50294199 9.19692284 5.85413425
Ni 5.69972581 13.07724557 9.49578260
Ni 10.15477694 0.63639061 3.97718477
Ni 17.17435832 3.00523629 5.08853056
Ni 15.65126839 0.40146206 6.92497489
Ni 14.20936771 0.02804334 8.48406120
Ni 13.17757219 13.92599018 10.24946465
Ni 2.26625619 5.94396390 7.52316760
Ni 4.74188558 2.73529500 11.97783080
Ni 12.16274935 10.53974379 15.98890547
Ni 4.56083668 0.29161203 2.99006320
Ni 14.43187317 10.78071451 16.81483875
Ni 11.22597855 2.06689937 8.59847732
Ni 12.15028868 15.62311027 5.28413676
Ni 17.30473099 1.43035585 7.94733145
Ni 16.38955564 3.89205242 16.11328243
Ni 12.93885362 15.78054534 11.89498969
Ni 3.44273602 7.72525827 6.12245131
Ni 0.17350863 2.40979079 14.09226663
Ni 1.55270336 13.80095648 15.61078910
Ni 2.38026641 15.59034401 8.04006137
Ni 17.09638768 1.96727880 16.31093970
Ni 6.04654173 2.88167929 14.67388818
Ni 1.72799966 2.54914670 5.72120966
Ni 6.90363973 0.28131650 8.59883778
Ni 16.92134859 2.54345470 0.89565243
Ni 2.70318665 14.35827562 17.25622692
Ni 7.04280247 13.80126166 13.27647262
Ni 8.37474772 4.64515425 17.39866100
Ni 14.35710264 9.93615522 11.21173217
Ni 3.06176731 6.03779827 14.38788727
Ni 13.63703820 6.72006035 0.15334215
Ni 1.67513236 1.61416466 9.78195479
Ni 15.42664649 1.08716192 1.83953306
Ni 3.27688071 4.21171277 4.47648471
Ni 8.19541249 6.89286090 11.27821541
Ni 10.99434502 11.78691971 2.94603413
Ni 16.24036283 4.50641674 6.67324845
Ni 13.44615737 3.71326542 14.04181321
Ni 15.65331488 11.37832045 0.88474778
Ni 1.56606028 13.02714195 1.55410733
Ni 7.39637608 14.09914201 16.66236291
Ni 15.23013186 16.13205295 13.35470624
Ni 8.28346285 15.67392699 2.76755538
Ni 12.88718097 0.53555255 1.59867708
Ni 10.11808844 7.95946905 14.87909468
Ni 12.13347311 0.41193218 9.87262713
Ni 8.67045645 2.69605952 7.40331363
Ni 1.12383378 4.50345863 14.12676660
Ni 17.43538193 16.55801387 11.79996832
Ni 7.35023095 8.92740159 5.86690113
Ni 6.02637307 6.66071989 12.17072433
Ni 15.11354268 1.37546691 4.34096796
Ni 8.44330884 9.88806189 17.53245677
Ni 10.42266646 7.99187306 17.16468983
Ni 7.02187489 12.47592004 11.31133771
Ni 1.00993339 7.88554025 14.15831848
Ni 7.63672744 8.23208514 9.36908967
Ni 4.80076001 15.39200298 2.59673305
Ni 17.19992857 6.17913353 14.46279000
Ni 3.86740478 7.31779541 3.81807102
Ni 17.39334779 0.37107687 14.16130043
Ni 3.70354172 0.45500323 16.27717797
Ni 8.99348545 0.72698116 8.11263594
Ni 3.31927152 4.78480312 16.71293070
Ni 10.57921873 10.24348697 0.13031347
Ni 5.70799374 8.67061001 13.22264359
Ni 12.30996726 6.52153048 4.50837758
Ni 1.84461132 13.54496670 12.47545432
Ni 16.34383526 13.05734929 0.06754323
Ni 12.04693134 16.34542362 16.03801440
Ni 2.76877803 17.48303261 8.51735132
Ni 14.01674510 5.20555238 16.39572888
Ni 10.80862793 16.76307686 11.50835559
Ni 13.53310380 11.31998496 9.88506652
Ni 4.22526241 17.23698114 0.83482498
Ni 13.82911716 16.93794581 17.47080053
Ni 14.03361271 12.65405149 0.14405263
Ni 11.78314673 13.61484567 12.73745164
Ni 15.03175177 3.26842238 0.37335212
Ni 10.72424496 2.98275793 10.59636222
Ni 9.26455092 12.24098866 10.31041442
Ni 14.10047130 8.71317909 15.37137125
Ni 6.84735860 3.76514087 8.45110199
Ni 9.12134937 14.18901609 15.11464126
Ni 15.08994846 12.77031663 9.87904956
Ni 14.42098540 16.72041881 2.23235176
Ni 2.95700536 14.69095672 13.65122493
Ni 9.04447114 2.71145421 1.76439396
Ni 0.77273641 4.78561634 1.85556136
Ni 0.81026148 15.29315420 4.11615733
Ni 14.91558372 2.04085560 8.43387618
Ni 11.24651510 8.20171018 6.85310427
Ni 1.66116508 15.81025897 6.15820084
Ni 4.83027939 13.11241323 12.50789042
Ni 8.99276946 12.49047479 16.76990323
Ni 10.31295810 15.78817922 1.70247466
Ni 2.74636480 0.19655465 6.04707078
Ni 4.49718539 1.68291447 13.81682231
Ni 4.80101074 8.95366958 7.99483068
Ni 15.28713128 7.63247052 1.85900312
Ni 8.32544596 8.03127347 3.75235582
Ni 12.29122517 7.06683515 8.64958152
Ni 3.36435123 13.54138153 4.49666410
Ni 11.92708757 12.92804628 4.90355683
Ni 5.96726020 0.05465915 14.63198165
Ni 4.88308065 0.84159956 8.08552403
Ni 7.44459018 5.66635812 15.74338466
Ni 16.78832065 0.36244547 3.75921938
Ni 4.75112960 6.25867283 5.61031534
Ni 1.50584292 17.57195666 4.26515042
Ni 0.98266536 17.43201817 7.45836955
Ni 7.21237166 14.32878238 6.57287018
Ni 3.74839693 4.11271792 6.57012006
Ni 10.59036614 5.09098353 2.25570753
Ni 15.73434118 15.53497535 7.44731180
Ni 2.71526729 6.20624678 2.12605751
Ni 4.02466424 9.48342656 3.65901729
Ni 5.13212364 16.19503369 9.46261873
Ni 5.14782309 0.19040694 5.86593434
Ni 11.46490162 0.04731009 5.67355379
Ni 0.87427645 14.73794135 11.08687637
Ni 1.47356164 10.69595601 9.33594854
Ni 8.46080682 16.61940608 5.03194193
Ni 6.87470540 6.14449679 8.48215850
Ni 1.33424025 13.26658196 3.67128114
Ni 7.44636218 7.32789487 13.64044327
Ni 1.04967762 6.94802222 9.04167867
Ni 5.85138040 12.32288511 5.26084782
Ni 6.08227448 2.38346164 7.06109815
Ni 6.87752273 2.19727975 1.69700382
Ni 13.50682832 14.99885273 3.77617902
Ni 16.67229182 13.57231420 4.07018503
Ni 15.56010139 10.56486299 14.89338709
Ni 16.36626096 8.61039230 7.86725027
Ni 13.79670673 3.00788168 16.19331446
Ni 5.35589474 8.49720577 4.72899331
Ni 4.23873686 7.12513296 16.28239908
Ni 8.31936913 1.70983254 9.93975714
Ni 14.40596364 9.31521647 13.20251993
Ni 11.44339989 13.80697262 7.08201307
Ni 6.47666555 4.56383188 6.43901903
Ni 11.49603144 11.11932213 8.26607107
Ni 5.83624243 16.55275367 4.25648079
Ni 5.46170438 4.99810018 16.30941202
Ni 0.43453257 11.74561636 15.37975846
Ni 11.07133635 6.06911188 6.39023367
Ni 3.73458244 9.62317745 9.92312301
Ni 11.18468870 9.31036626 2.46917867
Ni 3.37119320 11.92082804 8.96040731
Ni 11.69505794 1.05990832 12.02749642
Ni 6.61571779 11.11975139 13.07588296
Ni 8.97568344 3.80010510 12.14245883
Ni 0.57076594 12.20449768 17.48103102
Ni 3.94905471 15.96023387 6.44785186
Ni 6.01707857 10.37703648 6.43394115
Ni 15.55727488 3.17689600 11.86117824
Ni 2.57737325 16.64770013 10.97486877
Ni 4.96058319 5.54729530 7.57610135
Ni 13.29068095 9.85488795 6.71170339
Ni 15.22901048 13.94333998 13.75750973
Ni 17.19594330 8.41023411 9.80987220
Ni 2.15833988 2.04910409 7.90556485
Ni 12.07983057 4.86111443 9.17709554
Ni 10.70322820 10.79361558 12.97952271
Ni 3.36036204 12.33712142 0.51541800
Ni 2.02557397 8.43623842 10.51064868
Ni 9.05595078 13.45471616 2.92508265
Ni 0.21683133 12.36681255 13.28090921
Ni 16.34632630 0.41111389 10.07935174
Ni 9.93373107 16.29668509 9.04665207
Ni 12.67928666 10.47484762 0.71010921
Ni 9.75847377 7.41073298 5.32451444
Ni 2.42224865 15.10608051 1.74383292
Ni 14.21110023 9.86055473 2.34624742
Ni 3.75572617 3.85799418 14.41594115
Ni 13.60439894 1.27505429 6.41593815
Ni 7.25068236 15.51930360 15.27470115
Ni 4.71225637 12.77378216 2.47939454
Ni 5.49599309 10.95185340 3.69499125
Ni 6.13903173 7.07901555 17.23454840
Ni 9.33537690 4.69341461 14.36009897
Ni 5.49433794 8.73242016 11.09135320
Ni 6.76807713 4.96410465 0.88443780
Ni 16.09167894 6.98903995 6.79778923
Ni 4.21116965 0.76729688 9.98459591
Ni 6.78283164 3.07820014 16.93646303
Ni 6.88911957 11.80502426 1.57309218
Ni 17.21466637 13.72973586 6.26680658
Ni 14.55077036 14.72516583 8.74008135
Ni 8.43712908 11.86411727 14.49211668
Ni 10.89699264 1.03803308 1.88745226
Ni 16.16592972 16.95020653 0.99342509
Ni 11.93826311 0.08167038 7.76480188
Ni 15.52986363 11.15635022 6.22698693
Ni 6.98102568 9.49829143 2.72511165
Ni 7.78349127 6.15005403 5.34338232
Ni 15.08115742 1.76748725 14.15540847
Ni 8.51320723 5.17299750 1.78753686
Ni 13.28957803 15.16667623 13.86750192
Ni 4.78890373 8.85404784 1.87362250
Ni 2.12016398 16.87424291 17.23005601
Ni 13.68606345 17.46077996 4.21321859
Ni 9.61297559 13.08939860 12.80829046
Ni 1.41248473 16.10040244 12.93005325
Ni 12.73032613 7.02419607 2.14847513
Ni 5.92686431 12.91991185 7.36820408
Ni 1.22517929 7.68371182 6.37455561
Ni 4.83083899 5.06054850 3.03129812
Ni 9.28638999 0.77544207 11.70616952
Ni 7.11948074 11.47820752 16.98261219
Ni 14.70210523 15.15283819 0.84624554
Ni 3.69920781 15.36437620 15.55923272
Ni 2.68558104 8.85931859 7.99170339
Ni 6.98270298 10.62705851 15.30647686
Ni 11.61237142 9.18478684 9.01782118
Ni 1.44664612 0.63304439 15.69445443
Ni 3.16836807 3.00224247 10.52989714
Ni 8.32088072 7.82416805 16.68481775
Ni 5.62385395 15.09996722 16.68400495
Ni 9.27727967 10.00970235 4.17754087
Ni 0.69286877 6.13448200 12.42232909
Ni 10.14254596 2.92753154 5.02216769
Ni 13.90038001 16.26042906 6.63709227
Ni 8.55405116 5.09087671 7.22020575
Ni 9.79034819 10.39398931 15.52025223
Ni 6.02562970 8.58065617 15.59811372
Ni 2.54354459 11.76412372 10.94817343
Ni 15.37922549 16.85775956 5.17673388
Ni 1.32647731 3.52829467 17.41679218
Ni 6.44901502 15.38392173 11.22312108
Ni 4.71486907 10.84008175 0.71966403
Ni 0.15014951 3.27308656 7.32848260
Ni 5.01097395 11.20994193 14.65212835
Ni 8.18162502 14.03238363 11.43051186
Ni 12.32050839 15.53519027 0.54039368
Ni 10.94549737 13.77702360 9.09167906
Ni 14.14456435 17.10233720 15.06813107
Ni 6.48638306 16.86104372 0.17396757
Ni 3.60080282 14.07101056 10.79705951
Ni 10.27082811 5.51848807 10.48282552
Ni 10.31935259 15.87823514 4.20101272
Ni 3.03181807 10.00137668 12.49551479
Ni 0.29358853 12.09530878 10.83992718
Ni 13.82582323 7.81516280 4.40310388
Ni 15.24847095 5.01067308 14.49913818
Ni 5.39033472 4.35961676 13.09761355
Ni 17.07159525 2.71019680 9.99369276
Ni 2.47254194 8.78890262 15.99323756
Ni 9.23125147 4.00020756 9.31194204
Ni 9.13749560 9.09377964 1.82783691
Ni 11.25649315 3.09142061 13.11932073
Ni 4.54245290 2.44055127 16.03597846
Ni 0.41041426 5.15321558 8.59461675
Ni 5.55275301 1.17193008 17.35986133
Ni 3.43845969 8.03230301 12.94209827
Ni 0.29520900 9.83035567 7.74107360
Ni 0.13780544 8.60072111 3.74659338
Ni 14.26318932 5.51197781 5.64524647
Ni 12.17335740 1.28878743 3.69888940
Ni 5.18937673 3.14695618 0.91318567
Ni 4.08480908 9.88184410 5.94661721
Ni 3.09348193 11.11875648 2.48283311
Ni 5.23931777 12.64524139 16.91627445
Ni 9.79663566 14.16407944 5.47873735
Ni 9.03228290 2.70855090 16.85615507
Ni 13.55912783 3.03224086 4.54671035
Ni 17.38905702 6.25440148 5.15375635
Ni 1.45891837 4.47422126 10.31947565
Ni 10.37006434 15.06341923 16.65864309
Ni 8.47970012 13.81639712 8.66184913
Ni 11.57832202 2.11033489 6.36664719
Ni 16.68373909 4.61308960 12.93892478
Ni 8.74156911 10.83624222 12.40562703
Ni 4.48621963 5.86180042 0.82476313
Ni 17.09419266 13.55333829 9.40985077
Ni 8.81750313 16.09690092 0.40588138
Ni 10.95660882 2.94833445 2.96826199
Ni 1.69540091 5.10073813 5.69755006
Ni 10.85220576 7.41822903 2.92642536
Ni 3.79333452 8.65418865 0.19410652
Ni 15.94073582 2.94959986 3.17618991
Ni 14.51280547 1.38403986 10.63170596
Ni 14.93003687 3.80838438 9.92239225
Ni 12.12140793 7.60396175 16.52611356
Ni 10.04041417 8.55441002 12.66308661
Ni 14.39291333 8.82694900 0.34092904
Ni 6.08688327 7.53449379 7.03424201
Ni 4.01567503 5.82469642 12.44243993
Ni 6.45000554 0.99644075 12.35853632
Ni 1.61223507 16.04541230 15.31177415
Ni 11.05914182 14.02402996 2.93608263
Ni 2.09989524 3.10141123 15.61460312
Ni 9.13480987 11.80652203 1.42570469
Ni 8.54235537 0.40540305 2.17484755
Ni 17.16186169 5.50531596 10.68491872
Ni 6.98099354 15.26615134 8.90817333
Ni 13.29089015 12.00007960 2.61816772
Ni 6.27641951 6.89719601 1.80765272
Ni 10.53740213 3.92138785 7.27629194
Ni 10.61707951 1.17710845 16.06738765
Ni 8.90745795 2.05507187 13.90982814
Ni 0.09705801 0.95543337 5.67411884
Ni 13.48263719 2.93048553 2.53813182
Ni 6.36746032 9.40582949 0.11276388
Ni 9.60454725 6.32138322 12.78521763
Ni 16.37088203 10.33525279 9.94145298
Ni 17.41053208 17.44095242 16.67664418
Ni 9.23841069 16.53257000 15.72830707
Ni 11.93412059 9.10463160 14.31541811
Ni 0.58736596 9.94031466 11.58762329
Ni 4.20796568 10.11463747 16.17027094
Ni 2.51852336 11.61821784 5.09383804
Ni 10.37431023 5.98562903 15.95361932
Ni 7.09666846 4.29646839 3.38177449
Ni 16.98855449 5.17514546 3.47218529
Ni 13.18137721 7.41563988 6.43141134
Ni 12.35116446 4.50233272 3.49039111
Ni 2.59286090 3.84327942 12.49086373
Ni 3.93119608 14.19227473 8.15525134
Ni 12.83577437 2.62936940 0.56256250
Ni 15.39768222 6.03947683 9.04395485
Ni 0.78207905 17.04655145 9.77188965
Ni 15.16248686 8.91556897 6.13539081
Ni 6.96543450 3.10830939 12.54498743
Ni 8.01074511 11.20074243 6.16043976
Ni 13.68795385 16.24417591 9.95920507
Ni 5.23974322 14.69616082 13.96983196
Ni 13.12088840 12.04863084 7.12799066
Ni 8.49268133 7.49772619 7.12924908
Ni 16.35379419 1.27058455 12.28079440
Ni 13.78713157 13.65075305 12.29560441
Ni 14.33750744 12.80204502 15.47498060
Ni 0.41843978 15.12910323 17.52585951
Ni 9.82115867 12.26660502 7.64964029
Ni 13.50410186 6.92647302 14.58509681
Ni 1.28500608 11.16291377 3.34672939
Ni 6.45432182 14.85656950 1.15845075
Ni 3.62966302 6.95015571 8.92206875
Ni 17.47117746 11.92927379 8.11227409
Ni 1.56675875 6.80429019 4.12892391
Ni 16.52368689 10.57396080 12.95717100
Ni 11.10820782 11.21091894 5.80375499
Ni 5.15706680 11.41764179 10.81229852
Ni 6.42848120 12.82559028 14.97500678
Ni 11.93170672 9.10823179 11.96481561
Ni 1.08639191 3.58185714 3.60773039
Ni 3.15695264 2.09424681 0.12892507
Ni 10.97524919 3.38858507 0.73917804
Ni 4.99894396 2.83117841 8.94363506
Ni 12.19256409 4.29029224 5.91231806
Ni 3.99675107 11.98214954 6.98025966
Ni 10.48330310 12.45473984 14.74513255
Ni 8.61065014 13.91682238 0.91195675
Ni 7.51223984 11.35845153 3.96550665
Ni 17.03831664 14.37018787 1.61023516
Ni 12.45563189 4.32844185 11.33224031
Ni 13.28792150 8.19385910 10.51551304
Ni 0.20638709 15.26945401 8.05906541
Ni 16.21101790 9.85832163 4.54574635
Ni 6.26100394 1.90616834 10.50799268
Ni 7.95613242 3.56565363 15.27315267
Ni 8.96619251 7.14058916 1.04229632
Ni 8.42219439 15.95578609 7.10218055
Ni 7.27252569 10.35538327 10.28563682
Ni 15.23356016 13.02471950 2.05673684
Ni 9.23770856 8.93616412 10.46733169
Ni 11.59130962 5.14386471 13.97147326
Ni 16.45372169 15.97082022 14.74596173
Ni 5.41816830 7.02832814 10.05058365
Ni 12.56152421 14.31407814 16.10606457
Ni 13.46776778 14.12464686 6.28829149
Ni 0.96126550 5.22403953 16.00107280
Ni 7.94418181 3.43146570 5.30047819
Ni 6.88086127 13.41863203 3.45111401
Ni 17.41961939 14.52362528 13.06031988
Ni 13.70984126 0.28339431 12.74855544
Ni 0.45979375 7.55522714 16.33052301
Ni 16.59239108 15.82263662 3.49051840
Ni 9.76256630 0.98253230 6.06701235
Ni 7.63165587 1.03796588 15.35561691
Ni 7.52968656 11.89091077 8.66041530
Ni 3.78908972 2.25589358 4.32653797
Ni 12.85685865 2.40043397 9.71748997
Ni 10.61162377 3.28151263 15.51842176
Ni 10.44266664 5.07678115 4.66687251
Ni 9.63764786 9.76085429 6.55460553
Ni 2.46692695 17.45887826 2.06373602
Ni 7.63189030 5.24721639 12.91942202
Ni 15.10744062 15.24920483 11.19266933
Ni 1.59967143 10.11970798 14.51175359
Ni 1.82177023 13.59884302 9.01007868
Ni 16.88346075 15.73854425 10.01481991
Ni 10.88160504 6.10947532 0.41116461
Ni 6.17134746 1.28015472 3.93426935
Ni 7.30335488 0.96754918 6.00842338
Ni 16.70091759 5.38611947 0.09535720
Ni 2.05826974 10.46528297 0.45097580
Ni 14.27243990 5.36975367 12.36001893
Ni 2.21593113 10.61694414 7.21994518
Ni 4.19887069 5.13594529 10.11681045
Ni 12.13400659 4.54539432 16.91212519
Ni 0.94827213 1.23943024 0.31584075
Ni 1.87053697 6.18197481 17.50334091
Ni 15.51141747 2.56387371 6.27218824
Ni 10.72703278 16.01822655 6.73452713
Ni 12.46685031 15.47888994 8.29685864
Ni 15.10433971 12.92853882 7.87391357
Ni 11.22313906 12.65376919 10.90291466
Ni 9.27761199 17.21214344 13.82895194
Ni 3.20197139 1.96011138 2.45582488
Ni 4.30884282 15.73971829 12.29338023
Ni 14.73133092 14.91626927 15.87348446
Ni 11.44482695 12.36374638 17.10332338
Ni 2.32870960 8.23102611 2.66251959
Ni 15.73532140 6.26538456 16.28893320
Ni 11.89578209 9.25816473 4.72106221
Ni 10.84505188 17.42300875 0.29644664
Ni 15.93358828 6.86908646 11.62816655
Ni 3.35771693 1.16814825 12.20124029
Ni 13.76789143 7.50443702 12.40719930
Ni 8.70999158 16.65126537 10.66135137
Ni 14.11105822 13.01338372 4.65851772
Ni 11.98809765 16.57245363 3.05607097
Ni 8.36318397 1.72539694 3.95378716
Ni 13.69821707 5.85499993 10.11536242
Ni 3.11807534 4.06259947 8.39188520
Ni 5.20144705 3.09846214 2.96627249
Ni 0.73278891 3.00786675 11.75284569
Ni 10.76102785 15.14805082 14.46024498
Ni 14.37050744 8.26225981 8.48402375
Ni 10.16341462 14.75784233 10.99486770
Ni 9.54957864 12.23505035 4.70273640
Ni 14.14419986 10.65103427 4.59242268
Ni 2.14754692 1.59219936 13.85965605
Ni 2.88711013 11.87744588 13.42531953
Ni 0.23790221 7.09372874 2.06263632
Ni 16.68195388 8.62095703 15.06410528
Ni 6.05291655 6.57668765 3.91594857
Ni 14.41763852 5.95585790 3.42653819
Ni 7.56417158 9.02421367 12.26950008
Ni 15.94575017 7.62917551 4.53502366
Ni 10.97448503 10.54273095 10.44725839
Ni 2.24475600 9.18848532 5.03531774
Ni 15.48261883 7.21843030 14.01339649
Ni 0.40071924 1.46463580 2.44130646
Ni 11.30389742 7.61955720 10.54100596
Ni 8.47678988 9.22019583 14.10811207
Ni 11.49070092 17.20565571 13.88983456
Ni 16.21161979 13.29025223 11.64268033
Ni 14.75883481 11.75423912 12.99709242
Ni 2.82811270 3.85075326 1.41314923
Ni 16.53936249 8.54198454 17.44841742
Ni 17.44038287 11.29887621 5.87777374
Ni 12.59356184 11.94007199 14.12633931
Ni 17.03108852 8.34204540 12.82671568
Ni 12.72350905 1.54341335 14.55540116
Ni 4.92169535 14.25287330 5.84997164
Ni 13.27664905 2.65728728 12.30864594
Ni 15.35967599 14.53633511 5.23780821
Ni 3.04347764 17.32496198 14.12329338
Ni 2.25911848 6.27315290 11.14082696
Ni 17.24942876 16.34231573 5.71976025
Ni 12.94055355 13.84757681 1.53499031
Ni 10.24242071 5.96437550 8.43047003
Ni 6.46382364 16.18145538 13.10915487
Ni 7.18584422 9.64593127 7.86307853
Ni 5.44262181 6.12947920 14.51532684
Ni 2.50487921 11.75554956 15.85215528
Ni 9.32047935 10.58711889 8.78801547
Ni 11.78943425 6.76105841 12.51470145
Ni 9.58421638 8.48797214 8.56285409
Ni 0.42079498 16.40458361 1.87320023
Ni 13.55990790 5.72641889 7.71280148
Ni 5.39728877 3.65293953 5.04803743
Ni 15.12835597 1.17902268 16.88638442
Ni 12.64003979 0.98866175 16.63000181
Ni 16.98092362 13.81739562 15.71483704
Ni 4.10970444 2.00303763 6.55916159
Ni 15.55257528 11.60544755 3.42721537
Ni 13.65147578 3.66685863 7.32949216
Ni 17.25717724 12.27754807 2.13055955
Ni 1.22093068 0.90202906 11.88622100
Ni 0.64217603 9.80200453 16.60531695
Ni 12.72796821 5.00814227 1.28188127
Ni 3.15840844 15.77052247 4.33242610
Ni 0.18553147 9.73293845 1.57856805
Ni 6.14533700 4.12693451 10.43718470
Ni 10.70499594 13.55792162 1.02019711
Ni 12.50059137 11.04402445 12.00866596
Ni 1.94653415 13.44405270 6.49852394
Ni 6.20396224 16.38946364 6.99119664
