500
Final configuration Lattice="18.07500000 0 0  0 18.07500000 0  0 0 18.07500000" Properties=species:S:1:pos:R:3
Cu 0.00278778 18.04928375 18.04075088
Cu 17.99867718 1.70573526 1.83808185
Cu 1.85294236 18.06620467 1.71127380
Cu 1.79309500 1.88164784 18.05977829
Cu 17.94799373 18.05522474 3.70984214
Cu 18.06983351 1.82756027 5.38268505
Cu 1.79488148 0.03597044 5.38157044
Cu 1.79127056 1.81665654 3.57333360
Cu 18.07221222 0.02370530 7.26003933
Cu 18.04287379 1.70485515 9.07135880
Cu 1.87263027 0.03337874 9.04660524
Cu 1.79222466 1.79785965 7.21735659
Cu 0.04444057 18.06895271 10.89091332
Cu 18.04295968 1.82670796 12.67680494
Cu 1.75265829 0.02090989 12.71921348
Cu 1.72596082 1.78344946 10.85941215
Cu 18.06124066 0.12934298 14.50378184
Cu 18.01705489 1.82832049 16.32235765
Cu 1.78030496 0.11804847 16.31173803
Cu 1.80972868 1.88629755 14.50805207
Cu 18.04177643 3.53019324 0.05079254
Cu 18.03304987 5.31156966 1.77811830
Cu 1.80970662 3.57412132 1.86572881
Cu 1.75780828 5.25600071 0.01809658
Cu 18.06428207 3.66255993 3.71042019
Cu 0.02857662 5.42133006 5.54293141
Cu 1.79585273 3.59099479 5.48852135
Cu 1.76123033 5.33641804 3.72443218
Cu 18.03214664 3.50435501 7.29456728
Cu 18.05189742 5.44707860 8.98032299
Cu 1.71479362 3.59355688 9.03726983
Cu 1.81062033 5.45141059 7.22450443
Cu 18.06956035 3.62121324 10.84696417
Cu 0.02028347 5.35863358 12.59140882
Cu 1.80724374 3.61634997 12.73181738
Cu 1.81005609 5.44964683 10.92281035
Cu 18.06568487 3.55490284 14.51274159
Cu 18.03790671 5.34159187 16.28527220
Cu 1.84668380 3.61853790 16.30109087
Cu 1.75618671 5.47334912 14.45806612
Cu 0.23161492 7.18416250 18.02147458
Cu 18.07204721 8.98053718 1.85953443
Cu 1.75247223 7.11004056 1.77613547
Cu 1.92225241 9.06988965 0.02238614
Cu 18.06935507 7.10054299 3.54324493
Cu 0.05831815 8.89571344 5.42236968
Cu 1.76852966 7.21243610 5.42357864
Cu 1.80619260 8.92702469 3.58103557
Cu 18.06828637 7.26594100 7.27579672
Cu 0.06169915 9.00105847 9.05906705
Cu 1.89897634 7.24524275 9.14021545
Cu 1.84816190 8.95111061 7.24397291
Cu 0.02673289 7.20182109 10.84185562
Cu 18.06274920 9.06299404 12.66232408
Cu 1.84072891 7.20330593 12.67063361
Cu 1.85218201 8.96816416 10.88439262
Cu 18.03628864 7.19730756 14.40482871
Cu 0.14475763 9.06460388 16.28405598
Cu 1.82092728 7.15289522 16.20526392
Cu 1.87698204 8.92751532 14.42800262
Cu 18.04603370 10.83408015 0.11473564
Cu 0.09990522 12.62805434 1.76483415
Cu 1.81957337 10.79999506 1.88731834
Cu 1.84386882 12.55655641 18.02753643
Cu 18.04315508 10.81055547 3.60109934
Cu 18.02160361 12.65950182 5.43785249
Cu 1.73643719 10.81006181 5.45735708
Cu 1.68317925 12.66006665 3.71148909
Cu 0.02327107 10.74156724 7.28177068
Cu 0.05826950 12.64417514 8.98144087
Cu 1.83178967 10.78066437 9.10729292
Cu 1.77854174 12.66974927 7.18345845
Cu 17.97504916 10.83591324 10.80197590
Cu 0.01877825 12.61535217 12.66476124
Cu 1.84905636 10.86084732 12.63074644
Cu 1.77269560 12.61993742 10.83447239
Cu 0.03682627 10.81087973 14.49778070
Cu 0.07344617 12.48987261 16.33393231
Cu 1.90786155 10.85097404 16.16367937
Cu 1.98281314 12.66995451 14.46716573
Cu 0.08488496 14.54861443 18.04842393
Cu 0.00750773 16.21984839 1.83228182
Cu 1.86577985 14.36604455 1.95837673
Cu 1.90743305 16.27053237 17.96238402
Cu 0.07504078 14.55130415 3.62653215
Cu 18.04121981 16.29031673 5.42025029
Cu 1.83025094 14.49272834 5.55806014
Cu 1.73359188 16.30030866 3.50738246
Cu 18.03323549 14.49025365 7.20125192
Cu 18.06931910 16.31290421 8.96613615
Cu 1.85740126 14.42092058 8.99537180
Cu 1.83818459 16.33040335 7.28011382
Cu 0.01721767 14.49000797 10.91930131
Cu 18.07153157 16.28310351 12.68546059
Cu 1.78030646 14.47320534 12.60179836
Cu 1.78196834 16.26527456 10.85354559
Cu 0.03054453 14.40075540 14.50889122
Cu 0.03515806 16.22992510 16.32928534
Cu 1.82213640 14.49806006 16.25600117
Cu 1.78450832 16.33309541 14.46771072
Cu 3.59094496 0.04140775 0.08793524
Cu 3.68440529 1.84378727 1.79927506
Cu 5.46809877 18.01289386 1.84038563
Cu 5.54980937 1.77026085 0.01742894
Cu 3.53542990 0.01958743 3.64146137
Cu 3.58998402 1.80579913 5.53086177
Cu 5.46979353 18.06834120 5.34832553
Cu 5.46887730 1.83112589 3.57325059
Cu 3.67139782 18.04327018 7.29834861
Cu 3.58355251 1.85081302 9.05290983
Cu 5.52266764 0.04515427 9.03197467
Cu 5.37576615 1.74788805 7.21695121
Cu 3.56919229 18.07198979 10.81343050
Cu 3.65050174 1.86004842 12.63542548
Cu 5.35766094 0.01889396 12.63845189
Cu 5.28185928 1.79968018 10.78277555
Cu 3.59964309 0.00535553 14.44837837
Cu 3.66247687 1.69241949 16.28846383
Cu 5.55931379 17.99020513 16.30392716
Cu 5.44511580 1.77809348 14.44116519
Cu 3.64762090 3.61029279 0.04511671
Cu 3.60108687 5.42905958 1.76327491
Cu 5.46472761 3.65241344 1.76971324
Cu 5.48670895 5.47226452 18.01922710
Cu 3.62481274 3.60705516 3.69060347
Cu 3.63419677 5.39019615 5.37190955
Cu 5.50555738 3.62030259 5.47687898
Cu 5.40823254 5.39536691 3.56332018
Cu 3.63078564 3.69031048 7.28965051
Cu 3.63064554 5.48098678 9.08382216
Cu 5.38453669 3.56594497 9.02160553
Cu 5.37549670 5.39265918 7.27097888
Cu 3.54382627 3.58035114 10.80345465
Cu 3.64851898 5.37586722 12.58054580
Cu 5.45487634 3.56349159 12.69757086
Cu 5.35238717 5.40085750 10.88098459
Cu 3.55732132 3.70236921 14.46097356
Cu 3.53318629 5.44037124 16.30977986
Cu 5.35490971 3.58553334 16.30227897
Cu 5.47521938 5.39664428 14.41321854
Cu 3.55911545 7.16260352 0.05999834
Cu 3.67767274 9.03678369 1.97170515
Cu 5.42234392 7.22044895 1.88889441
Cu 5.39283200 8.96344299 18.05384497
Cu 3.61445378 7.17795450 3.64277327
Cu 3.63752826 9.01109465 5.42475131
Cu 5.41142482 7.25142723 5.44057317
Cu 5.37730265 9.07643032 3.71190011
Cu 3.62967678 7.22924711 7.20449609
Cu 3.68276170 9.05929552 9.08879989
Cu 5.41810355 7.26986375 9.12122736
Cu 5.38534913 9.09681577 7.28937433
Cu 3.54707402 7.29760852 10.90645665
Cu 3.64340698 9.04789530 12.66347737
Cu 5.35590405 7.17641326 12.65006395
Cu 5.44424984 9.12672246 10.92730665
Cu 3.61920847 7.12149562 14.45999702
Cu 3.60779662 8.99004685 16.25071832
Cu 5.49328867 7.27828358 16.23805617
Cu 5.39132344 9.01984662 14.44102569
Cu 3.67557149 10.76455277 0.07391396
Cu 3.63592374 12.57333267 1.84810909
Cu 5.42300526 10.78510042 1.84465986
Cu 5.32797230 12.67918660 17.98022612
Cu 3.52403212 10.88399457 3.68386805
Cu 3.54163375 12.61178671 5.36742956
Cu 5.44741456 10.83826604 5.43021379
Cu 5.38878068 12.69162066 3.68148149
Cu 3.56810711 10.76437877 7.22588315
Cu 3.57105943 12.64188283 9.09659415
Cu 5.39245110 10.88122328 9.04477276
Cu 5.38051020 12.64651372 7.20843932
Cu 3.64478606 10.82659526 10.84241817
Cu 3.55747075 12.73273425 12.58642044
Cu 5.39013489 10.97182924 12.61993733
Cu 5.41051847 12.65368615 10.82539006
Cu 3.65943735 10.81130466 14.42601894
Cu 3.59252081 12.68267288 16.20372041
Cu 5.35431968 10.86762369 16.24407718
Cu 5.35819237 12.78042143 14.41956490
Cu 3.50294332 14.48437387 0.00439832
Cu 3.46130471 16.23347759 1.84848831
Cu 5.31096326 14.37079113 1.80216101
Cu 5.30966507 16.16630321 0.01010044
Cu 3.57926485 14.41524384 3.69082955
Cu 3.58785527 16.38143069 5.37815281
Cu 5.37906867 14.61603177 5.41857806
Cu 5.32866274 16.24701583 3.61870193
Cu 3.73961487 14.53551904 7.23076048
Cu 3.67842610 16.25717184 9.00929676
Cu 5.42855610 14.45304163 9.12808767
Cu 5.51264083 16.34939724 7.23160903
Cu 3.55693990 14.49110598 10.86138523
Cu 3.68867121 16.28596515 12.66166547
Cu 5.42704240 14.50814507 12.63130289
Cu 5.47717960 16.26703867 10.82411359
Cu 3.56121760 14.50716870 14.36549977
Cu 3.65165789 16.21197296 16.25041411
Cu 5.33498373 14.44184219 16.26824512
Cu 5.47425286 16.24790714 14.48646825
Cu 7.24950139 18.05335665 0.01452801
Cu 7.28834907 1.81766829 1.79649671
Cu 9.07658379 18.04817301 1.82995545
Cu 9.09710157 1.77873899 18.05843248
Cu 7.32737379 17.99204442 3.67259079
Cu 7.30914372 1.68858761 5.45464129
Cu 9.14222442 17.98016292 5.45702714
Cu 9.03290848 1.76836100 3.61118013
Cu 7.25932800 0.09014955 7.28703612
Cu 7.29911967 1.82689244 8.99937714
Cu 9.07685264 18.01821461 9.11046922
Cu 9.08538061 1.89522866 7.26536772
Cu 7.23239593 0.01692771 10.80917248
Cu 7.27280446 1.78172125 12.67270744
Cu 9.11477428 0.01801774 12.65557092
Cu 9.03413685 1.80164491 10.77835056
Cu 7.21863112 18.04422033 14.49587692
Cu 7.24090040 1.81741859 16.20020335
Cu 9.04483131 0.02056901 16.26966340
Cu 8.99096507 1.69837040 14.47307669
Cu 7.24902306 3.63431081 0.02945370
Cu 7.27325070 5.46715975 1.75396981
Cu 9.11517547 3.66629233 1.72290182
Cu 9.00778421 5.47711671 17.95249728
Cu 7.18774272 3.61865759 3.55483488
Cu 7.21807650 5.46640650 5.43212889
Cu 9.03061404 3.65189060 5.36453810
Cu 9.06496959 5.36619704 3.63880226
Cu 7.21810784 3.68063261 7.24055457
Cu 7.36649281 5.46196179 8.99481250
Cu 8.97119279 3.65689757 9.08101013
Cu 9.12267257 5.46200049 7.17415973
Cu 7.25427130 3.60687099 10.88943669
Cu 7.23440539 5.39667112 12.58895819
Cu 9.10225509 3.56162260 12.59195726
Cu 9.01878407 5.54044556 10.85479438
Cu 7.33550781 3.56116373 14.50967420
Cu 7.21405230 5.40729341 16.23457294
Cu 9.07600922 3.58780496 16.26154835
Cu 9.02846232 5.48809682 14.54606192
Cu 7.30033812 7.28038268 18.07303439
Cu 7.25186511 8.98739556 1.78107954
Cu 9.08661111 7.26541405 1.79615262
Cu 9.06674326 9.05919946 0.05634185
Cu 7.23009496 7.20382015 3.66172991
Cu 7.26070531 9.09030553 5.40475887
Cu 9.08456687 7.21601353 5.42484950
Cu 9.08415464 9.13050216 3.54571301
Cu 7.17729972 7.21772981 7.24572638
Cu 7.16506661 9.09610952 8.98056164
Cu 9.01910328 7.30189478 9.02321906
Cu 8.95796900 8.97803675 7.12859370
Cu 7.11599063 7.25529654 10.92654903
Cu 7.14054487 9.17639366 12.71054475
Cu 9.03129423 7.28967619 12.67545059
Cu 9.02539360 9.04435447 10.84214991
Cu 7.22327659 7.26405656 14.40663805
Cu 7.26239077 9.07416641 16.32835443
Cu 9.01450343 7.32278285 16.22750126
Cu 9.02572312 9.10157739 14.49560454
Cu 7.12526095 10.93401090 18.04261501
Cu 7.16080745 12.63330085 1.77279580
Cu 8.98929738 10.89626673 1.80400384
Cu 8.92987022 12.68759611 18.04583888
Cu 7.22489657 10.85778694 3.62204648
Cu 7.17185061 12.65604389 5.45966074
Cu 9.05906309 10.86060512 5.37345526
Cu 8.91659852 12.68052033 3.60495780
Cu 7.20542410 10.88666900 7.17714282
Cu 7.27407519 12.59314085 9.07912423
Cu 9.01721138 10.81196908 8.97630508
Cu 9.00255024 12.68289584 7.22950623
Cu 7.26752513 10.81695192 10.81990574
Cu 7.21885769 12.68214866 12.70649456
Cu 9.01915445 10.84612164 12.59855753
Cu 9.08151787 12.56019139 10.83621342
Cu 7.13439774 10.82347955 14.52130341
Cu 7.22105322 12.64198349 16.21161317
Cu 9.07554524 10.88237782 16.27220476
Cu 9.05752729 12.67952610 14.43589050
Cu 7.30809770 14.46467831 18.07397310
Cu 7.22780212 16.14935771 1.86042633
Cu 9.01303239 14.50776377 1.78734293
Cu 9.04810435 16.22855010 0.00381710
Cu 7.28277865 14.46434759 3.62670762
Cu 7.30355506 16.33362439 5.47565998
Cu 8.94668795 14.43042240 5.48260016
Cu 9.04715760 16.25760480 3.58417830
Cu 7.27961934 14.39846057 7.31938370
Cu 7.19854162 16.25283512 9.07590410
Cu 9.07833112 14.49405052 9.12415974
Cu 8.92474797 16.28162529 7.31017392
Cu 7.25370016 14.39578465 10.85782928
Cu 7.17699259 16.24849354 12.66851487
Cu 9.08357896 14.37362053 12.62999640
Cu 8.98322185 16.28690337 10.92621410
Cu 7.27641777 14.40357345 14.53654251
Cu 7.20516733 16.22893394 16.32328235
Cu 9.08270531 14.36145231 16.28098935
Cu 8.97477142 16.16904279 14.50495929
Cu 10.85218114 18.05908395 0.03483266
Cu 10.89839283 1.84281052 1.75978304
Cu 12.60876762 0.03634904 1.91128478
Cu 12.63336029 1.84947921 0.04932238
Cu 10.81242892 0.03364581 3.58116529
Cu 10.83832045 1.86652900 5.49747242
Cu 12.63079359 0.08981062 5.42536134
Cu 12.59176988 1.87997059 3.60727628
Cu 10.80747784 0.05004201 7.23263407
Cu 10.90106743 1.76303678 9.08138923
Cu 12.73428397 18.05784405 9.07560185
Cu 12.57304759 1.84068286 7.27070109
Cu 10.90774084 17.94381741 10.93723648
Cu 10.91165803 1.85039783 12.82649025
Cu 12.59475610 0.00975016 12.69241632
Cu 12.62023886 1.76239378 10.82669066
Cu 10.81856425 17.94707817 14.48143879
Cu 10.82886962 1.75712612 16.17577362
Cu 12.69032983 17.98373744 16.22398468
Cu 12.64878969 1.82143365 14.59682471
Cu 10.79924345 3.58065130 17.97022120
Cu 10.76624563 5.48075354 1.73360484
Cu 12.63900076 3.76708165 1.77044841
Cu 12.63454900 5.47305872 0.02396497
Cu 10.84619855 3.63895944 3.58081099
Cu 10.83843156 5.41177008 5.45056626
Cu 12.71788685 3.64023717 5.48588410
Cu 12.58023147 5.50588040 3.63247964
Cu 10.86786674 3.60208751 7.27007479
Cu 10.78727789 5.46100537 9.09304013
Cu 12.71000337 3.68015879 9.01506854
Cu 12.63487068 5.44536397 7.23130377
Cu 10.89664101 3.65760156 10.82436249
Cu 10.82763743 5.47513291 12.58169263
Cu 12.60593677 3.68553336 12.64759377
Cu 12.71071915 5.46756180 10.83431498
Cu 10.82632079 3.69499201 14.41300236
Cu 10.87113970 5.47191538 16.20640865
Cu 12.70091684 3.74574044 16.25268381
Cu 12.71761939 5.57293147 14.51497133
Cu 10.84284506 7.23719641 18.03643226
Cu 10.79769213 9.11255189 1.78294018
Cu 12.64501243 7.26770724 1.74209324
Cu 12.72205083 9.07924011 18.02102950
Cu 10.80666828 7.25537820 3.56911650
Cu 10.84069989 9.06846301 5.41551726
Cu 12.61147500 7.18102310 5.45270248
Cu 12.62768784 9.02075097 3.66165286
Cu 10.85132088 7.22216765 7.23450696
Cu 10.88660726 9.06848855 9.00796219
Cu 12.73187652 7.25298716 9.06634862
Cu 12.65704412 9.04899326 7.15681295
Cu 10.75342843 7.28927033 10.83591413
Cu 10.77655110 9.13572383 12.65903755
Cu 12.70040015 7.29860663 12.59648446
Cu 12.52235711 9.00792322 10.77430524
Cu 10.87716832 7.31311343 14.38349674
Cu 10.89796683 9.04169072 16.16965834
Cu 12.57381680 7.24462602 16.24389643
Cu 12.64793696 8.99702672 14.49743329
Cu 10.90948894 10.95484597 18.05472691
Cu 10.76327872 12.62386282 1.76418232
Cu 12.57284865 10.81757210 1.84035854
Cu 12.60946323 12.63897323 0.03552137
Cu 10.81407338 10.89229637 3.58451892
Cu 10.77520544 12.62566377 5.46604495
Cu 12.67894386 10.86914609 5.44204846
Cu 12.60462919 12.58897892 3.65602255
Cu 10.84145658 10.82716675 7.14852303
Cu 10.93411193 12.52486167 9.02504127
Cu 12.57607862 10.85868747 8.94848464
Cu 12.65130730 12.68313193 7.22470633
Cu 10.86661398 10.77442907 10.82246464
Cu 10.84917064 12.69978382 12.56720253
Cu 12.64939960 10.85154111 12.66091009
Cu 12.65302437 12.61377597 10.78544783
Cu 10.84499858 10.86732590 14.33809414
Cu 10.85332770 12.61453157 16.32486228
Cu 12.62296743 10.85958293 16.20931556
Cu 12.63981744 12.62525323 14.43237964
Cu 10.74136784 14.42260446 18.07378581
Cu 10.85244454 16.24360285 1.80347453
Cu 12.58867607 14.37155693 1.75334934
Cu 12.64391096 16.14417538 18.00563142
Cu 10.76654723 14.36116358 3.49993845
Cu 10.83153093 16.20911964 5.38950771
Cu 12.67662695 14.35591849 5.42154982
Cu 12.63799602 16.27442879 3.65526493
Cu 10.76884709 14.37555302 7.31585649
Cu 10.86237773 16.30338173 8.98565082
Cu 12.66056984 14.42932175 9.00083855
Cu 12.57950593 16.28922248 7.18975027
Cu 10.94722018 14.41480514 10.83574811
Cu 10.84661861 16.17732871 12.67570523
Cu 12.74525779 14.42223757 12.69380475
Cu 12.72312455 16.16086557 10.79792598
Cu 10.81999685 14.35836235 14.43490648
Cu 10.84726796 16.21523776 16.21382767
Cu 12.68123009 14.42099113 16.20949639
Cu 12.64589594 16.11967948 14.45977930
Cu 14.35234269 17.99688734 0.07208502
Cu 14.37013550 1.81705481 1.80368280
Cu 16.19978709 17.94056247 1.82439464
Cu 16.18030401 1.71707260 0.09587120
Cu 14.35482071 0.16002704 3.67448873
Cu 14.44144600 1.81533200 5.40809880
Cu 16.27002543 18.06416518 5.47231926
Cu 16.24232795 1.78669130 3.53706724
Cu 14.40044693 0.04310836 7.23697909
Cu 14.35664389 1.83206275 9.05517527
Cu 16.23033898 0.01919558 9.01797377
Cu 16.23580312 1.78949610 7.10317906
Cu 14.47278749 0.00301021 10.87064829
Cu 14.34442471 1.93302544 12.71834832
Cu 16.31224814 0.07120198 12.67108739
Cu 16.25313830 1.81614915 10.85793219
Cu 14.52420002 0.03287353 14.36969612
Cu 14.43830073 1.81369117 16.37347793
Cu 16.17833971 18.03519248 16.35004803
Cu 16.12392816 1.84276793 14.60491772
Cu 14.47591392 3.66178325 0.00763565
Cu 14.52341292 5.49194267 1.80251149
Cu 16.21313813 3.57760469 1.86257003
Cu 16.24544333 5.57789451 18.02974143
Cu 14.36167834 3.68061697 3.62174759
Cu 14.45779533 5.49632388 5.51364396
Cu 16.14847949 3.61150079 5.36669380
Cu 16.22213580 5.42308015 3.58333347
Cu 14.48308152 3.52121884 7.26246234
Cu 14.40719890 5.44856547 8.97077530
Cu 16.24619357 3.53508081 9.07979699
Cu 16.22525184 5.30899646 7.22999892
Cu 14.40679311 3.62213250 10.75621164
Cu 14.53406299 5.53486637 12.66292125
Cu 16.16794061 3.60415364 12.72173828
Cu 16.21699239 5.39822006 10.90875353
Cu 14.46028678 3.65425809 14.51280486
Cu 14.52516420 5.46047445 16.27901483
Cu 16.28542603 3.62422207 16.35025012
Cu 16.28959386 5.44112009 14.36440264
Cu 14.41864028 7.19186521 18.02406860
Cu 14.45549755 9.10495307 1.71505844
Cu 16.25594590 7.31447425 1.70736229
Cu 16.35681121 9.00854453 18.05918691
Cu 14.40263956 7.25478613 3.60559061
Cu 14.47373695 9.06651983 5.40356557
Cu 16.30742938 7.19262819 5.46627467
Cu 16.17627728 8.93465451 3.54237610
Cu 14.42211052 7.30524988 7.15326729
Cu 14.39801062 9.13356616 8.94461055
Cu 16.23322417 7.24900389 8.90812866
Cu 16.33496840 9.10884242 7.22679526
Cu 14.48277983 7.28021062 10.84318272
Cu 14.44969036 9.11886701 12.55552433
Cu 16.40421399 7.24568422 12.59689058
Cu 16.26320219 9.05036055 10.74517525
Cu 14.47424278 7.31630703 14.61171276
Cu 14.50164624 9.08754962 16.32128746
Cu 16.38131752 7.24467573 16.28720378
Cu 16.26613600 8.92950585 14.47296014
Cu 14.50482924 10.97156145 18.00056586
Cu 14.41675481 12.64085127 1.87600650
Cu 16.28389284 10.89698848 1.81765228
Cu 16.27168136 12.66692065 18.07422303
Cu 14.49029623 10.79830558 3.56038905
Cu 14.51378607 12.65596960 5.39593988
Cu 16.32178423 10.86615712 5.38742317
Cu 16.23603707 12.69810849 3.54242696
Cu 14.46735985 10.90665120 7.16188158
Cu 14.37300093 12.63905422 8.94698024
Cu 16.26679430 10.89426269 8.99172768
Cu 16.30163166 12.70163988 7.25720469
Cu 14.50354965 10.84865110 10.80067428
Cu 14.41798784 12.64667282 12.63909372
Cu 16.23570362 10.89694359 12.65715797
Cu 16.36787706 12.63617238 10.81432420
Cu 14.42397893 10.86529148 14.46960241
Cu 14.48751956 12.63717480 16.20507956
Cu 16.35389601 10.83404256 16.15645888
Cu 16.36052849 12.54671970 14.47048517
Cu 14.40341208 14.41584827 0.00099703
Cu 14.42733467 16.27763654 1.90295909
Cu 16.18311345 14.51845692 1.78113195
Cu 16.32082689 16.32621081 0.00077697
Cu 14.37923071 14.49339863 3.68681819
Cu 14.40847901 16.24213746 5.40354776
Cu 16.22062314 14.46935355 5.47149463
Cu 16.16035029 16.23613898 3.61968974
Cu 14.45609966 14.44593291 7.22436734
Cu 14.44483239 16.32051922 8.95656869
Cu 16.28431800 14.48303764 9.02801996
Cu 16.22830916 16.34387605 7.19054253
Cu 14.50168969 14.40278188 10.81504175
Cu 14.55271598 16.29220152 12.56162363
Cu 16.29534101 14.41866706 12.66600155
Cu 16.30623516 16.28149572 10.80113659
Cu 14.49554730 14.47978531 14.45359172
Cu 14.43917877 16.19655428 16.36613789
Cu 16.34160539 14.35871624 16.21264327
Cu 16.38312968 16.30382022 14.58319291
