500
Final configuration Lattice="17.60000000 0 0  0 17.60000000 0  0 0 17.60000000" Properties=species:S:1:pos:R:3
Ni 0.05595331 0.00643305 0.00594941
Ni 0.01666145 1.77282504 1.73924855
Ni 1.77710417 0.00781772 1.81029962
Ni 1.76874474 1.73230369 17.58195789
Ni 0.07116390 0.06997092 3.59052560
Ni 17.56745297 1.77428176 5.29947857
Ni 1.81326734 0.11772620 5.34893636
Ni 1.75020729 1.79762944 3.48909625
Ni 17.52204842 0.09454371 7.03580624
Ni 17.58666431 1.88207371 8.84144207
Ni 1.67155695 0.10351537 8.78476507
Ni 1.74002303 1.83361009 7.07164208
Ni 0.02382609 0.14677236 10.59616687
Ni 0.05623846 1.82237919 12.37028450
Ni 1.77672666 0.10711844 12.27252944
Ni 1.83827223 1.78016692 10.61417816
Ni 17.53825051 0.04938965 14.12968311
Ni 17.57072336 1.84411834 15.86138870
Ni 1.77711932 17.57953423 15.80713438
Ni 1.79204364 1.83906183 14.09535199
Ni 0.00965305 3.55692925 17.54910693
Ni 0.04509338 5.25454847 1.74563577
Ni 1.85202446 3.52579043 1.76178320
Ni 1.72840553 5.23810840 17.59527109
Ni 0.03634353 3.46463367 3.49436897
Ni 17.57800236 5.27409679 5.21200176
Ni 1.73870908 3.48210093 5.26096487
Ni 1.77982352 5.31420267 3.46708743
Ni 17.57281640 3.52852449 6.99143698
Ni 0.06944445 5.25631199 8.75966399
Ni 1.77621304 3.56695862 8.76206464
Ni 1.73040817 5.30252212 6.99715502
Ni 0.08397796 3.59300337 10.55014702
Ni 17.59842248 5.25159761 12.32918506
Ni 1.80677678 3.54253635 12.31649421
Ni 1.78369327 5.30837609 10.48878985
Ni 0.03720262 3.60951126 14.16367562
Ni 17.51837329 5.30360372 15.92009605
Ni 1.79007247 3.52771477 15.85934700
Ni 1.83760247 5.25814963 14.07577728
Ni 17.48349467 7.04559679 0.01826539
Ni 17.59156253 8.79869418 1.72126939
Ni 1.72492186 7.03382651 1.67618849
Ni 1.76507570 8.83771183 0.02311482
Ni 0.03059144 7.10973761 3.44703657
Ni 17.57264452 8.74085979 5.29953678
Ni 1.76583845 7.04783152 5.27485775
Ni 1.72677419 8.82022289 3.48329335
Ni 17.54671896 7.03466343 7.04174911
Ni 17.59742636 8.72770673 8.86111782
Ni 1.77036969 7.03990383 8.69042233
Ni 1.78345670 8.80155462 7.06955799
Ni 0.07290251 7.05143663 10.52836173
Ni 17.58435818 8.75163033 12.26117079
Ni 1.71181374 6.97820141 12.33028665
Ni 1.75726552 8.79405147 10.54437676
Ni 17.51336914 7.02452378 14.12863152
Ni 0.01290437 8.85393157 15.83808017
Ni 1.75522421 7.11452082 15.87158234
Ni 1.77240890 8.74750646 14.04818167
Ni 17.59246539 10.50959867 0.01855670
Ni 0.01022457 12.35293278 1.75994777
Ni 1.70786412 10.59209325 1.78129844
Ni 1.70894649 12.30062571 0.07291179
Ni 17.54760691 10.69550380 3.50402921
Ni 0.03390382 12.29529934 5.37274207
Ni 1.61902323 10.47691748 5.29780302
Ni 1.67862222 12.27769607 3.59035792
Ni 0.04717639 10.45897819 7.07751654
Ni 17.54035595 12.33233712 8.71342243
Ni 1.74897839 10.56720607 8.85323380
Ni 1.71357896 12.36304286 7.04079886
Ni 17.53983480 10.57583894 10.52936226
Ni 17.52058543 12.28785437 12.36614445
Ni 1.71459995 10.55087190 12.35797946
Ni 1.64735802 12.28090979 10.56550121
Ni 0.04791994 10.54835033 14.08881717
Ni 0.00157752 12.33159980 15.87748989
Ni 1.79877639 10.59399674 15.89636972
Ni 1.77989714 12.25839209 14.03252653
Ni 0.02667114 14.12294379 0.06758441
Ni 17.59630827 15.86760408 1.76585359
Ni 1.76613242 14.07960282 1.77449042
Ni 1.77559844 15.80119295 17.59617443
Ni 0.07876771 14.04247194 3.50887104
Ni 0.12861522 15.87381463 5.29343896
Ni 1.81340507 14.09005484 5.27133934
Ni 1.71500629 15.84975697 3.52618615
Ni 0.04353503 14.11661078 7.04208907
Ni 17.53536369 15.89952397 8.78430366
Ni 1.76883526 14.07945395 8.79828564
Ni 1.77293556 15.94437039 7.03487464
Ni 0.07698297 14.17671214 10.61454100
Ni 17.58905942 15.90501442 12.34563860
Ni 1.77806294 14.10326022 12.32938265
Ni 1.72774084 15.96543117 10.48405674
Ni 17.54173536 14.09696877 14.06308901
Ni 0.01345365 15.79019496 15.84748209
Ni 1.78938948 14.07491208 15.77458455
Ni 1.69181509 15.92634685 14.04672375
Ni 3.47382952 17.53915573 17.58669842
Ni 3.50531414 1.69567564 1.71313402
Ni 5.22563152 17.54723924 1.77364864
Ni 5.34335479 1.78023994 17.55900018
Ni 3.50464747 17.57919520 3.52951146
Ni 3.57334697 1.74644645 5.27930213
Ni 5.26405269 17.55451398 5.32415344
Ni 5.28110322 1.72893775 3.54828139
Ni 3.46124786 17.58000484 7.09404443
Ni 3.52360109 1.77954422 8.80110932
Ni 5.23425701 17.59356695 8.75974810
Ni 5.23043864 1.78058781 6.98469124
Ni 3.50659031 17.56336246 10.54820810
Ni 3.50181369 1.72453525 12.32045799
Ni 5.24653082 17.57413004 12.29261546
Ni 5.30714248 1.73687943 10.55906155
Ni 3.50380374 17.54091635 14.10384656
Ni 3.50230715 1.74910213 15.87309588
Ni 5.23299276 17.56568743 15.83262526
Ni 5.27662448 1.75306428 14.09763540
Ni 3.54616796 3.51742220 17.59723484
Ni 3.53482444 5.35532198 1.84082106
Ni 5.25675309 3.44834574 1.82327001
Ni 5.22470018 5.24338329 0.02291178
Ni 3.47979703 3.54288910 3.52778731
Ni 3.55877098 5.25218365 5.19192007
Ni 5.21474477 3.50734936 5.26088777
Ni 5.33734525 5.29192239 3.49795410
Ni 3.46176519 3.56016810 7.03499291
Ni 3.56556785 5.34189102 8.80600965
Ni 5.20505651 3.51524126 8.80683719
Ni 5.30067657 5.27452798 7.02834843
Ni 3.47980020 3.57018914 10.54597670
Ni 3.52820983 5.30984597 12.31315725
Ni 5.19421011 3.48209200 12.32717644
Ni 5.25927603 5.31256172 10.58948200
Ni 3.60026739 3.57824027 14.12474504
Ni 3.55619913 5.27921271 15.94008144
Ni 5.34848785 3.42452149 15.85519168
Ni 5.36290452 5.27599876 14.11793553
Ni 3.49904791 7.04710430 0.04169104
Ni 3.43670427 8.82377638 1.77147909
Ni 5.25694796 7.11627886 1.68184177
Ni 5.24142907 8.86429569 0.03182202
Ni 3.49994284 7.04608268 3.55280732
Ni 3.47767280 8.82791749 5.26097924
Ni 5.33468424 7.00206730 5.25890614
Ni 5.30287654 8.75385054 3.49561613
Ni 3.55899752 7.09520030 7.00016044
Ni 3.57251513 8.81395192 8.78344190
Ni 5.31650579 7.00121739 8.72563435
Ni 5.27936386 8.83499244 7.05736044
Ni 3.40264079 7.03045746 10.58953441
Ni 3.49264550 8.84368331 12.32546401
Ni 5.23574352 7.06211021 12.31966313
Ni 5.19908222 8.76990847 10.55404824
Ni 3.55638669 7.08303963 14.12003495
Ni 3.60392264 8.77281910 15.86815311
Ni 5.35022654 7.01144754 15.83696536
Ni 5.32266943 8.76093707 14.11818944
Ni 3.53548175 10.55519169 17.55577007
Ni 3.52518303 12.23244419 1.79721411
Ni 5.24822639 10.54776201 1.74661883
Ni 5.22802434 12.29189346 0.03338535
Ni 3.45916924 10.57004639 3.48025588
Ni 3.45392626 12.23391845 5.30500407
Ni 5.26094438 10.53421478 5.25351348
Ni 5.26679198 12.28256226 3.62420597
Ni 3.46535464 10.51797975 7.04510923
Ni 3.49824578 12.36184586 8.78855838
Ni 5.27910358 10.56220001 8.74308444
Ni 5.31235014 12.28386665 7.04792671
Ni 3.51746277 10.61830223 10.53402055
Ni 3.53343246 12.22466842 12.36179722
Ni 5.22383096 10.52651315 12.36900859
Ni 5.21969191 12.34607230 10.56273499
Ni 3.63937651 10.51912048 14.10016086
Ni 3.52022557 12.29966817 15.89849627
Ni 5.32467974 10.51986765 15.85125330
Ni 5.24483869 12.38774904 14.12698102
Ni 3.55736408 14.08030857 0.02642779
Ni 3.51255358 15.79825992 1.70769616
Ni 5.23521159 14.02737086 1.77900901
Ni 5.28269744 15.85713908 17.51294539
Ni 3.40199297 14.04056732 3.42195727
Ni 3.45494687 15.88737245 5.23862702
Ni 5.19567406 14.04086954 5.23438343
Ni 5.27787052 15.72465573 3.51785404
Ni 3.48671309 14.05485783 6.91766328
Ni 3.43545014 15.87448623 8.72217733
Ni 5.23275357 14.10555462 8.76695354
Ni 5.22659179 15.82489184 7.00725015
Ni 3.43073426 14.10547896 10.58695191
Ni 3.44025200 15.83718739 12.33295876
Ni 5.16375724 14.09625572 12.30295436
Ni 5.28566215 15.82854457 10.55864082
Ni 3.48408122 14.05805780 14.00624910
Ni 3.49783345 15.72191176 15.83133270
Ni 5.30005230 14.12175715 15.83665930
Ni 5.29194410 15.81866014 13.99453101
Ni 6.98406712 17.58377944 0.06333186
Ni 6.98668094 1.68003352 1.77120193
Ni 8.86574575 17.57883712 1.71336022
Ni 8.75276235 1.70036254 17.58864093
Ni 7.03219057 17.56413401 3.57255952
Ni 7.05951058 1.72402221 5.23980319
Ni 8.75469996 0.04704463 5.27924779
Ni 8.81809975 1.73309553 3.54812513
Ni 7.07883600 17.56119070 7.05584773
Ni 6.94637508 1.75600300 8.73388233
Ni 8.67097778 17.57634348 8.80987320
Ni 8.75413658 1.78081718 6.99735985
Ni 7.02316695 17.55581666 10.53211883
Ni 7.06214367 1.78467211 12.32010944
Ni 8.77482085 17.49999389 12.31488395
Ni 8.85895411 1.76199820 10.57346724
Ni 7.03908712 0.01599159 14.03707365
Ni 7.08205989 1.68772812 15.81950685
Ni 8.75112351 17.46003962 15.82249175
Ni 8.79073467 1.71516471 14.14272399
Ni 7.03043779 3.46539528 0.09981755
Ni 7.05503050 5.21005484 1.84526320
Ni 8.74125144 3.47638086 1.78591093
Ni 8.81558280 5.28976190 0.07073628
Ni 7.04405676 3.47865245 3.61661753
Ni 7.00881638 5.24385472 5.28443967
Ni 8.86518670 3.52801397 5.21838655
Ni 8.85829131 5.29491823 3.50924148
Ni 7.03645350 3.48530831 6.99818183
Ni 7.09322066 5.22188801 8.74919756
Ni 8.77520433 3.50869659 8.75226111
Ni 8.83465732 5.26454025 7.03967242
Ni 7.00204863 3.50703408 10.55379749
Ni 6.97605491 5.25744339 12.28938580
Ni 8.78210614 3.46641894 12.36557801
Ni 8.79592818 5.28142477 10.60532516
Ni 7.03070774 3.52368569 14.11481264
Ni 7.08696196 5.21107723 15.96958883
Ni 8.78426915 3.43713487 15.88800024
Ni 8.77332648 5.17097414 14.13348174
Ni 7.04379901 7.03554902 0.04580200
Ni 7.06421599 8.79925324 1.80835233
Ni 8.75714116 7.05243671 1.80186473
Ni 8.81300821 8.90800641 17.55681819
Ni 7.05999664 7.05676170 3.53786409
Ni 7.06126704 8.80780387 5.26282198
Ni 8.89925915 7.01703107 5.22339559
Ni 8.82774193 8.81545186 3.49488686
Ni 7.04431177 7.09486401 7.04392426
Ni 6.94353166 8.73678846 8.86621623
Ni 8.77021590 7.06843168 8.76581226
Ni 8.82739417 8.83979555 7.03372597
Ni 7.00286554 7.09915793 10.55151164
Ni 6.98251922 8.83398155 12.22887736
Ni 8.76432117 7.02546125 12.24777707
Ni 8.82455422 8.80615058 10.45822087
Ni 6.99649375 6.97557359 14.06387472
Ni 7.07732943 8.77977091 15.80506231
Ni 8.81761857 6.98648869 15.87961093
Ni 8.81503815 8.82632048 14.08904949
Ni 7.12296682 10.56079030 17.59703128
Ni 6.99225694 12.30636070 1.79311648
Ni 8.87153794 10.55855893 1.86362472
Ni 8.83149610 12.24600693 17.59062761
Ni 7.04796022 10.52697141 3.48051622
Ni 7.01571985 12.27558571 5.26456866
Ni 8.84664586 10.61518671 5.24640999
Ni 8.79896409 12.34567777 3.50644359
Ni 7.10261591 10.51200245 7.00064266
Ni 7.03760862 12.34000107 8.76340591
Ni 8.82965232 10.51769695 8.75098605
Ni 8.75709104 12.33273910 7.06023890
Ni 7.02171545 10.60045209 10.45610412
Ni 6.90809184 12.23681020 12.33778534
Ni 8.76703000 10.63613093 12.28630854
Ni 8.76901021 12.28263606 10.54454481
Ni 7.02109065 10.53827406 14.01271186
Ni 7.10188007 12.31887961 15.74307617
Ni 8.75246386 10.55427490 15.76866143
Ni 8.78759385 12.31499519 14.02815787
Ni 6.96454446 13.93039026 17.58056348
Ni 7.05395113 15.79414130 1.75148716
Ni 8.81335965 14.06796770 1.79760441
Ni 8.67269198 15.83415072 17.57871234
Ni 7.07817721 14.04650204 3.51668362
Ni 7.06739192 15.78880366 5.21381657
Ni 8.81471553 14.10483273 5.30449841
Ni 8.89821529 15.81594231 3.56566036
Ni 6.95074436 14.11316686 7.03459777
Ni 6.98839518 15.86705772 8.74172843
Ni 8.79791975 14.06965327 8.86203930
Ni 8.81814242 15.76530471 7.10956210
Ni 6.93331582 14.03717789 10.52069760
Ni 7.03494488 15.83723294 12.34836133
Ni 8.67759624 14.02451443 12.23897803
Ni 8.77048408 15.84994740 10.48139923
Ni 6.98446986 14.06250710 13.99316010
Ni 7.03932766 15.77714766 15.71979369
Ni 8.86205745 14.18601734 15.78616917
Ni 8.83888798 15.74131948 14.00117982
Ni 10.55012455 0.03782566 0.03872825
Ni 10.54363144 1.78274012 1.84252057
Ni 12.36166065 0.02243145 1.70129490
Ni 12.28106421 1.69504301 0.07044640
Ni 10.66391110 17.54478861 3.53837459
Ni 10.62855490 1.70424456 5.31642155
Ni 12.44610815 17.57418066 5.27716588
Ni 12.30004884 1.72972720 3.64058676
Ni 10.49242029 17.52420840 7.09086913
Ni 10.61016424 1.72605069 8.75299730
Ni 12.35147761 17.55121953 8.86219540
Ni 12.31166656 1.74691424 7.09731209
Ni 10.48058463 17.57444741 10.54893594
Ni 10.54602085 1.72693562 12.36978614
Ni 12.36392485 17.54784800 12.28870632
Ni 12.27239235 1.78899751 10.51595937
Ni 10.55552131 17.48625873 14.14471971
Ni 10.53110180 1.72529047 15.81047608
Ni 12.31508881 17.54804929 15.87298321
Ni 12.32384786 1.74200946 14.12915885
Ni 10.58186656 3.46955746 17.58705906
Ni 10.54864550 5.24952970 1.73407685
Ni 12.39546153 3.51198990 1.76937663
Ni 12.28258013 5.29073993 0.00549427
Ni 10.58339270 3.56783360 3.52567015
Ni 10.56851674 5.26108019 5.27132969
Ni 12.36303542 3.51613790 5.20980721
Ni 12.30228885 5.28605986 3.51197697
Ni 10.65584075 3.56791949 7.04698791
Ni 10.48097157 5.31481260 8.82816255
Ni 12.27875739 3.64006706 8.87378592
Ni 12.29337084 5.33053496 7.00903916
Ni 10.56438049 3.50558552 10.58912297
Ni 10.47982596 5.30786038 12.24827245
Ni 12.21238741 3.46345459 12.41867450
Ni 12.29993459 5.34523346 10.58345871
Ni 10.51170629 3.51520814 14.11464812
Ni 10.50203896 5.19835682 15.94707615
Ni 12.32528462 3.47358410 15.84654734
Ni 12.25450656 5.32554712 14.09111820
Ni 10.50925872 7.06032429 0.04382961
Ni 10.54061006 8.80328944 1.75640948
Ni 12.34169677 7.00879791 1.65317411
Ni 12.31480031 8.78940348 17.55880049
Ni 10.59598482 7.07214491 3.57637224
Ni 10.58082973 8.84274702 5.29832657
Ni 12.29182730 7.07255976 5.27626626
Ni 12.26769694 8.87467591 3.48421417
Ni 10.49262835 7.05498459 7.00035345
Ni 10.59034458 8.84012923 8.83777071
Ni 12.25689298 7.03032337 8.69099354
Ni 12.23680608 8.81658679 6.98983598
Ni 10.57041265 7.03564239 10.56212457
Ni 10.43575375 8.78648304 12.29836190
Ni 12.22551889 7.08783631 12.30402492
Ni 12.35405278 8.78890684 10.59915466
Ni 10.54471298 6.97983679 14.10124628
Ni 10.53368902 8.81953510 15.76866241
Ni 12.30123023 7.04386188 15.83255620
Ni 12.31499760 8.79642531 14.05441793
Ni 10.53103855 10.58111247 0.01473598
Ni 10.58643466 12.43117438 1.81701798
Ni 12.35542700 10.55246945 1.71742707
Ni 12.37712349 12.36346487 0.07577900
Ni 10.60670507 10.57097920 3.50570384
Ni 10.61415283 12.28572729 5.25370732
Ni 12.41421266 10.53526135 5.25724390
Ni 12.38889863 12.27237377 3.51351850
Ni 10.65540179 10.63142082 7.09016813
Ni 10.58590771 12.35528880 8.80084925
Ni 12.33942414 10.58301715 8.86893088
Ni 12.45906700 12.38980517 7.01889077
Ni 10.54025839 10.55307058 10.63120331
Ni 10.54578008 12.31055255 12.27674687
Ni 12.29533421 10.53563304 12.36119571
Ni 12.26741685 12.31290384 10.55770687
Ni 10.59672152 10.58749325 14.04024459
Ni 10.55465130 12.31949832 15.77348720
Ni 12.27344367 10.56595588 15.78410989
Ni 12.45487698 12.37061176 14.04290698
Ni 10.54208661 14.07495695 17.53194593
Ni 10.57279383 15.84267950 1.76278114
Ni 12.37006016 14.14896004 1.76368209
Ni 12.32896160 15.80721634 0.02623747
Ni 10.57829102 14.10248991 3.56310696
Ni 10.58717697 15.85972033 5.30641266
Ni 12.34566059 14.06330832 5.28623348
Ni 12.33350220 15.78367920 3.50410597
Ni 10.59068683 14.04848556 7.08264566
Ni 10.59354912 15.82337610 8.80389494
Ni 12.29365747 14.10588993 8.83484280
Ni 12.33281407 15.83061767 7.07842430
Ni 10.58442022 14.05484570 10.51559758
Ni 10.55923806 15.79399151 12.33235799
Ni 12.35107108 13.98186788 12.26302970
Ni 12.37187672 15.85768352 10.53078782
Ni 10.59474622 14.11123673 14.03665734
Ni 10.57332569 15.84180782 15.87956679
Ni 12.37666507 14.10182124 15.80607255
Ni 12.40105500 15.81109569 14.02335924
Ni 14.14483406 0.04227643 0.05098922
Ni 14.13810025 1.77230861 1.80374587
Ni 16.03491718 17.56557177 1.79758276
Ni 15.88290243 1.77984651 0.10258939
Ni 14.07502553 0.07924397 3.52916205
Ni 14.14203634 1.83718182 5.35596971
Ni 15.84665238 17.53555026 5.26194385
Ni 15.85822584 1.78339462 3.55112062
Ni 14.12082948 0.06826632 7.07937782
Ni 13.98351225 1.86398628 8.86382669
Ni 15.84929913 0.05792106 8.92834780
Ni 15.84087096 1.77755767 7.13559198
Ni 14.08671054 0.06314965 10.59262121
Ni 14.00679107 1.79864031 12.33126223
Ni 15.89596696 0.08838769 12.33821326
Ni 15.83394339 1.90898348 10.58538726
Ni 14.09403694 17.56017316 14.03027298
Ni 14.04177659 1.76340017 15.91576071
Ni 15.80426976 0.04054813 15.93930398
Ni 15.84025873 1.86963182 14.15297816
Ni 13.98650552 3.49965363 17.56794619
Ni 14.09427520 5.31112212 1.73118024
Ni 15.91382763 3.52857530 1.76688896
Ni 15.80245358 5.26474562 0.00276516
Ni 14.02817977 3.51539362 3.47018980
Ni 14.04688586 5.31138758 5.21310317
Ni 15.82890249 3.59239552 5.19831817
Ni 15.84330432 5.31612597 3.48212394
Ni 14.00837078 3.66087262 6.99606809
Ni 14.11969479 5.34415772 8.75544445
Ni 15.87952960 3.59601115 8.77825660
Ni 15.88837183 5.23260370 6.97579426
Ni 14.05580987 3.61900628 10.59734856
Ni 14.04853201 5.33068407 12.39004674
Ni 15.83802494 3.56832743 12.40132232
Ni 15.91406648 5.26374997 10.63532265
Ni 14.00313870 3.58608323 14.13645188
Ni 14.02125255 5.29959634 15.84965285
Ni 15.72389367 3.59410131 15.85650208
Ni 15.75773114 5.27257909 14.13553827
Ni 14.21781154 6.99685484 17.54632724
Ni 14.05655911 8.80319901 1.82733850
Ni 15.82308266 6.97279092 1.74184562
Ni 15.79063282 8.75812373 0.05281427
Ni 14.08300404 7.03339874 3.49371660
Ni 14.07417797 8.77171292 5.22821181
Ni 15.87386424 7.00537597 5.30377557
Ni 15.88015731 8.75177027 3.55145749
Ni 14.01616089 7.04556097 6.96106038
Ni 14.02092195 8.74981473 8.82561841
Ni 15.88493316 7.05905071 8.87469711
Ni 15.77665772 8.75771675 7.07279107
Ni 14.05529084 6.99250719 10.57203808
Ni 14.13566875 8.81512461 12.31244273
Ni 15.88794575 7.03156633 12.37647693
Ni 15.82780249 8.77850757 10.56489843
Ni 14.03378192 7.12505026 14.11017911
Ni 14.11385843 8.86818429 15.85552039
Ni 15.75084114 7.06816013 15.76754614
Ni 15.80281927 8.83503748 14.02350595
Ni 14.10210321 10.63461733 0.01124879
Ni 14.12636772 12.26516779 1.82254226
Ni 15.85328928 10.54215711 1.74889351
Ni 15.82345196 12.40225007 0.03962215
Ni 14.14521354 10.49470477 3.60132675
Ni 14.09511388 12.27549230 5.34481410
Ni 15.76958156 10.52013403 5.27872391
Ni 15.83469532 12.38643349 3.56084913
Ni 14.03848284 10.54498503 7.10949841
Ni 14.16058281 12.36962425 8.83990529
Ni 15.80542543 10.46581531 8.86849531
Ni 15.86544216 12.23473868 7.05166818
Ni 14.06968417 10.48117199 10.63266625
Ni 14.08057543 12.27167314 12.27223450
Ni 15.80593532 10.53410888 12.23692644
Ni 15.91341600 12.33651132 10.46764821
Ni 14.06592765 10.52298728 14.06901443
Ni 14.09770050 12.31407307 15.91415292
Ni 15.87806427 10.62285741 15.91996512
Ni 15.80419363 12.31679531 14.07045641
Ni 14.11869848 14.10453062 0.08734304
Ni 14.16465161 15.88245309 1.82459675
Ni 15.85466688 14.10874901 1.81579602
Ni 15.81532591 15.79826599 0.03998637
Ni 14.08757976 14.06027828 3.54480803
Ni 14.14594847 15.89404408 5.32114560
Ni 15.95028648 14.12218014 5.30015756
Ni 15.93506390 15.78542869 3.57802542
Ni 14.19187776 14.05749984 7.06694472
Ni 14.13286978 15.80686822 8.83601638
Ni 15.94072414 14.17628163 8.86420184
Ni 15.94199883 15.82087246 7.04388523
Ni 14.11903020 14.08528867 10.52150419
Ni 14.08526811 15.84427103 12.34709741
Ni 15.82909576 13.97137036 12.27967454
Ni 15.89073010 15.83457481 10.67901547
Ni 14.14879058 14.12192772 14.07850140
Ni 14.06763236 15.83026692 15.91626102
Ni 15.88103839 14.07678933 15.88869426
Ni 15.81409378 15.85545377 14.16403149
