500
Final configuration Lattice="17.60000000 0 0  0 17.60000000 0  0 0 17.60000000" Properties=species:S:1:pos:R:3
Ni 0.00884792 17.52597401 17.49382909
Ni 17.45377523 1.68158302 1.87188767
Ni 1.61975305 0.09177819 1.62627610
Ni 1.81741686 1.82244397 0.07351604
Ni 17.56588202 17.51318929 3.58041471
Ni 17.53397718 1.66373970 5.47368713
Ni 1.67499545 0.14111392 5.31785866
Ni 1.62001942 1.65787159 3.50369484
Ni 0.11309169 17.58543749 7.06341976
Ni 0.08196854 1.57057576 8.85498170
Ni 1.80649850 17.50758739 8.80986300
Ni 1.76134933 1.77019352 7.11158186
Ni 0.14412177 17.38436655 10.51891223
Ni 0.02127719 1.66236532 12.39879416
Ni 1.89950454 17.55785553 12.40150157
Ni 1.69923658 1.58790667 10.57822674
Ni 0.05428622 17.38620299 14.10437469
Ni 0.18310535 1.82519080 15.87357647
Ni 1.89664561 17.54834942 15.95704309
Ni 1.73604055 1.76742606 14.21517161
Ni 17.57468306 3.55386213 0.09711481
Ni 0.16137356 5.37465961 1.82829108
Ni 1.67923406 3.39032982 1.92623999
Ni 1.77823547 5.28606597 0.15966232
Ni 17.52275207 3.52585554 3.56772076
Ni 17.39118958 5.20157984 5.43808552
Ni 1.60361790 3.46514794 5.43462245
Ni 1.62893671 5.18319450 3.68884838
Ni 17.45610049 3.47549494 7.38175974
Ni 0.04642365 5.18774797 8.92118656
Ni 1.81515611 3.53843947 8.83385910
Ni 1.75029426 5.23959153 6.99850621
Ni 17.57349936 3.41075606 10.56048625
Ni 17.54169022 5.20363576 12.23238476
Ni 1.63007011 3.55510245 12.39450970
Ni 1.80475522 5.31622211 10.71931706
Ni 17.53996254 3.40721819 14.10205062
Ni 0.02048423 5.36822159 15.86504755
Ni 1.86950210 3.72906235 15.85143467
Ni 1.70641000 5.31380620 14.06012471
Ni 17.41290670 7.17364802 0.20992825
Ni 17.52061615 8.94922915 1.95328447
Ni 1.84109389 7.08665845 1.79496001
Ni 1.83658173 8.79432711 17.42212877
Ni 0.00636400 7.14267847 3.42363690
Ni 0.01682952 8.88834718 5.16506716
Ni 1.82420737 7.02797797 5.28476702
Ni 1.75355790 8.89957006 3.44833928
Ni 0.21262564 6.99793380 7.04057622
Ni 0.04983726 8.82825068 8.95966282
Ni 1.70689512 7.06415400 8.98894994
Ni 1.73922003 8.75718197 7.20398563
Ni 17.58137111 7.01661656 10.71951187
Ni 17.57034783 8.88759437 12.43451794
Ni 1.79673786 7.21713503 12.42548099
Ni 1.87688981 8.82224150 10.63985269
Ni 17.49719146 7.01621319 13.98344092
Ni 17.29836729 8.79694680 15.80252479
Ni 1.76487723 7.15025685 15.92471153
Ni 1.85331661 8.85975070 14.02784462
Ni 17.41000274 10.57367865 0.12224472
Ni 0.02206800 12.31415591 1.66812648
Ni 1.73086771 10.58268335 1.73776859
Ni 1.67615077 12.33560176 0.01038016
Ni 0.01919369 10.62706037 3.48771738
Ni 0.07433445 12.28910465 5.34532977
Ni 1.80089176 10.58752417 5.28629701
Ni 1.95706426 12.30346761 3.50501629
Ni 0.20271471 10.53873551 7.03755573
Ni 17.54040889 12.39861197 8.86898717
Ni 1.72673857 10.62906394 8.78670527
Ni 1.79340100 12.31451284 7.00197195
Ni 17.59363600 10.78980693 10.70318126
Ni 17.57098394 12.35728067 12.36621003
Ni 1.72253966 10.51616438 12.37841101
Ni 1.77367629 12.41523034 10.50811872
Ni 0.09403887 10.70735335 14.12944499
Ni 17.56182936 12.38434637 15.82209367
Ni 1.81261075 10.39967622 15.80827524
Ni 1.85565967 12.36828861 14.31890133
Ni 0.07131728 14.08205178 0.08026972
Ni 0.03636073 15.83465846 1.54529924
Ni 1.83280898 13.93974821 1.86078673
Ni 1.87861812 15.85039472 17.59790060
Ni 0.11774226 13.94715200 3.58112592
Ni 0.12265433 15.73730706 5.28514642
Ni 1.85926437 14.09463392 5.05030232
Ni 1.68566449 15.91148340 3.27686673
Ni 0.09047555 14.04863841 7.05374234
Ni 0.03699831 15.78779692 8.73907014
Ni 1.76108059 14.06711943 8.82369648
Ni 1.75244890 15.88307215 6.93473347
Ni 0.02047099 14.13205143 10.56415755
Ni 0.04620615 15.75711682 12.34521098
Ni 1.67211482 14.07592214 12.34186733
Ni 1.83466741 15.87026653 10.71332916
Ni 0.03247343 14.12517882 14.11553770
Ni 0.08945923 15.72960407 15.84121969
Ni 1.74738095 14.22136688 15.98939577
Ni 1.86531040 15.85903991 13.97580954
Ni 3.48515277 0.08799173 0.08265643
Ni 3.39574786 1.84235408 1.73737819
Ni 5.31121488 0.04025321 1.66429694
Ni 5.20123082 1.90129620 0.05981125
Ni 3.40105105 17.57130637 3.32933089
Ni 3.50864295 1.71343108 5.23551025
Ni 5.16057311 0.09354042 5.26917855
Ni 5.09960914 1.75217074 3.46843564
Ni 3.37400842 17.57816369 6.93332930
Ni 3.30769651 1.72061684 8.70844235
Ni 5.19757496 0.14892590 8.80990664
Ni 5.22356013 1.80955180 7.08337409
Ni 3.48028908 0.06725365 10.57798519
Ni 3.36476520 1.83821816 12.36620140
Ni 5.48578159 0.04884524 12.27216469
Ni 5.36139232 1.77496084 10.64076269
Ni 3.68953490 0.06895188 14.05975332
Ni 3.45723901 1.90655541 15.91076567
Ni 5.49069577 17.57374483 15.88490702
Ni 5.28833104 1.73522235 14.06916455
Ni 3.52433703 3.57192627 17.54120339
Ni 3.29788982 5.25555112 1.87356628
Ni 5.21333693 3.67421883 1.68124086
Ni 5.32213926 5.32199818 17.44428142
Ni 3.38918698 3.45182278 3.64722284
Ni 3.46298339 5.31985767 5.19384435
Ni 5.36336808 3.43916713 5.31057517
Ni 5.33219762 5.35146783 3.53049218
Ni 3.38323140 3.50891857 6.95415387
Ni 3.45662774 5.22604007 8.73124275
Ni 5.19381875 3.56869025 8.74160333
Ni 5.23949904 5.37971435 7.08297460
Ni 3.58527459 3.48153360 10.66216886
Ni 3.43594402 5.26935855 12.28832150
Ni 5.32477357 3.53439891 12.47234114
Ni 5.37542683 5.23641626 10.70161603
Ni 3.36588785 3.56053750 13.97601330
Ni 3.41686621 5.30373366 15.90379159
Ni 5.31315681 3.44482928 15.61880569
Ni 5.11342420 5.30492622 14.08150865
Ni 3.56851482 6.93971745 0.00508720
Ni 3.55818251 8.87446327 1.68193287
Ni 5.30106504 7.05202753 1.64827288
Ni 5.31433897 8.92096567 0.01864267
Ni 3.58067147 7.06752687 3.58389264
Ni 3.44422934 8.78111159 5.37847655
Ni 5.16283980 6.94469010 5.28298057
Ni 5.30395846 8.85538544 3.47867639
Ni 3.48301200 6.96646786 6.99875942
Ni 3.56224716 8.70626250 8.76713026
Ni 5.31107570 6.98519436 8.89131645
Ni 5.48776402 8.73587171 7.14918702
Ni 3.45672706 7.15792155 10.61506799
Ni 3.69108232 8.81595900 12.36593250
Ni 5.33004001 7.01521940 11.99081628
Ni 5.24622044 8.78953858 10.48697881
Ni 3.52071259 7.08536647 14.04508493
Ni 3.54610098 8.65116443 15.83902519
Ni 5.44439013 7.08281464 15.82614541
Ni 5.25557979 8.65795219 14.04687152
Ni 3.43420662 10.58029649 17.41693845
Ni 3.51242336 12.25908497 1.57036436
Ni 5.20009664 10.57368052 1.64911753
Ni 5.32208729 12.25276864 17.42975206
Ni 3.66947489 10.47432640 3.63838397
Ni 3.55563480 12.34005396 5.20754994
Ni 5.20975495 10.40635493 5.47073094
Ni 5.29004339 12.33585575 3.46460648
Ni 3.59105598 10.56700649 7.17415555
Ni 3.50770380 12.25280763 8.78213011
Ni 5.29300725 10.46686965 8.84490825
Ni 5.26698170 12.28480192 7.20736024
Ni 3.59843048 10.65121811 10.54832580
Ni 3.37468678 12.15543437 12.31936914
Ni 5.16222808 10.56078327 12.35818594
Ni 5.50285836 12.34112594 10.59046395
Ni 3.59462218 10.59226966 14.16170691
Ni 3.62468130 12.39094381 15.86771952
Ni 5.24790411 10.54703564 15.88032569
Ni 5.35429620 12.30877531 14.09359291
Ni 3.62248939 14.15860598 0.06064999
Ni 3.44749793 15.84694955 1.74171676
Ni 5.31535469 14.09552724 1.74076759
Ni 5.37841255 15.92515061 0.06929262
Ni 3.64682147 14.10929292 3.48754887
Ni 3.45209589 15.97605984 5.27457900
Ni 5.18122651 14.32597416 5.48473067
Ni 5.22078940 15.96276868 3.54197981
Ni 3.30438396 14.09157110 7.03353614
Ni 3.53074728 15.80260617 8.83717644
Ni 5.27057264 13.99878826 8.80361311
Ni 5.07432304 15.95719541 7.11745514
Ni 3.51449237 14.05389978 10.54737029
Ni 3.53086497 15.86610481 12.33885364
Ni 5.27233332 14.06245479 12.24541323
Ni 5.30679382 16.03718316 10.47474790
Ni 3.60526083 13.97235344 13.89833370
Ni 3.68158573 15.75955341 15.84099596
Ni 5.20840640 14.07289553 15.73040927
Ni 5.56666520 15.73981948 13.91918290
Ni 7.11903170 0.01524416 0.19790976
Ni 6.85715237 1.79636194 1.82591340
Ni 8.71951891 17.57442912 1.86796937
Ni 8.76708790 1.90331759 0.03655936
Ni 6.98004029 0.06605813 3.60100980
Ni 7.03844100 1.86121307 5.18501503
Ni 8.66514488 0.11875103 5.15709743
Ni 8.81665612 1.84564014 3.52617364
Ni 6.82827920 17.52766641 7.08289266
Ni 7.04574429 1.79398750 8.67515932
Ni 8.74732956 17.54834720 8.56121406
Ni 8.71077758 1.78588965 7.04777316
Ni 7.11730353 0.17534335 10.49118735
Ni 7.14527630 1.83781745 12.25310032
Ni 8.84584218 0.03719288 12.32912798
Ni 8.98335028 1.86608667 10.61768106
Ni 7.18742183 0.08034018 14.17027006
Ni 7.07010498 1.80005410 15.82486271
Ni 8.76618699 17.55698130 15.89745073
Ni 8.71896542 1.78635264 14.05712310
Ni 6.90614093 3.66647039 17.42853048
Ni 7.02969285 5.09607359 1.77218580
Ni 8.82055305 3.46438172 1.80846944
Ni 8.80238797 5.13636723 17.56662327
Ni 6.99764727 3.52478893 3.52090140
Ni 6.97295059 5.42652077 5.31004312
Ni 8.78554376 3.51354478 5.21390108
Ni 8.80976635 5.06890147 3.59328794
Ni 6.99503509 3.68543485 6.96263169
Ni 7.02485073 5.29324188 8.82459764
Ni 8.70600659 3.51644524 8.78281324
Ni 8.85758659 5.03970586 6.87185799
Ni 6.98379125 3.53846252 10.42709651
Ni 7.03136948 5.28103960 12.28431108
Ni 8.76647670 3.73733208 12.11930512
Ni 8.74721511 5.32762976 10.46610579
Ni 7.12623596 3.41965437 13.98248077
Ni 7.06625220 5.25856602 15.53044251
Ni 8.87508678 3.54860210 15.76632569
Ni 8.83129039 5.34678617 13.97592104
Ni 7.10565930 6.89232192 17.56004358
Ni 7.10274511 8.74390852 1.60891857
Ni 8.86424389 6.91778693 1.82346243
Ni 8.81714508 8.69814319 0.13151972
Ni 6.99234422 7.02016992 3.41354433
Ni 7.00354149 8.77163171 5.13502947
Ni 8.83401170 6.90993595 5.18701225
Ni 8.84067501 8.82051601 3.44377874
Ni 7.22201060 6.95002363 7.07030253
Ni 7.27618734 8.77687600 8.71657588
Ni 8.73901995 6.99232148 8.83736769
Ni 8.85916245 8.87597510 6.94111880
Ni 7.12695199 7.02475965 10.53762688
Ni 6.94012035 8.92462614 12.27350485
Ni 8.73752339 7.09781315 12.39441514
Ni 8.78629560 8.63931610 10.64018412
Ni 7.02786543 7.26832042 13.90474738
Ni 7.16822872 8.87351720 15.91701484
Ni 8.89748930 7.14003218 15.78635756
Ni 8.81439950 8.81107887 14.18680692
Ni 6.95621260 10.64110784 0.04756620
Ni 7.10314117 12.42383811 1.73734515
Ni 8.61566603 10.60979037 1.77790305
Ni 8.65608054 12.20630381 17.43153965
Ni 7.03980651 10.57547518 3.52261413
Ni 6.85082649 12.38506909 5.32485842
Ni 8.59101125 10.57926251 5.28587653
Ni 8.62292737 12.45021597 3.66447103
Ni 7.10724241 10.50757585 7.11332222
Ni 7.16441767 12.33228905 8.71555377
Ni 8.90409540 10.39694313 8.83092898
Ni 8.85181212 12.41198975 7.19745189
Ni 7.03474466 10.59658436 10.55964080
Ni 7.00166511 12.39480622 12.24940493
Ni 8.85502242 10.50422645 12.21473258
Ni 8.96406537 12.38685073 10.63461614
Ni 7.10968376 10.47408999 13.79606857
Ni 7.10033906 12.24077914 15.68907001
Ni 8.78675267 10.52028293 15.89331970
Ni 8.79064530 12.06880984 14.01023339
Ni 7.16473849 14.00373913 0.02415869
Ni 7.01574038 15.92885826 1.94954295
Ni 8.78910246 14.11842474 1.75330218
Ni 8.80081243 15.81354225 0.12289966
Ni 6.90516953 14.14014785 3.67371439
Ni 6.94450921 15.82014024 5.30334282
Ni 8.68311561 13.98603328 5.39793087
Ni 8.79180429 15.86669277 3.54467568
Ni 6.91611029 14.29479557 7.10763586
Ni 7.04614166 15.99049453 8.86270110
Ni 8.83300837 14.18554547 8.80083513
Ni 8.69258087 15.91398081 6.76844508
Ni 7.11625410 14.19318548 10.61515739
Ni 7.37438024 15.95577721 12.26397658
Ni 8.83701125 14.01320651 12.35119876
Ni 8.97557389 15.92063764 10.46797420
Ni 7.07624611 13.94438490 13.96055843
Ni 7.26755412 15.73288781 15.87670746
Ni 8.92536422 13.96670423 15.82651694
Ni 8.79773297 15.72135669 13.98556803
Ni 10.60158586 0.20152658 0.13116939
Ni 10.52660535 1.73070891 1.85546403
Ni 12.32728568 17.54643761 1.91105465
Ni 12.29484592 1.79204263 17.52559841
Ni 10.54826254 17.57848169 3.69302429
Ni 10.46164016 1.78622605 5.29050009
Ni 12.21009138 17.49120691 5.19961170
Ni 12.45881433 1.72932866 3.35720555
Ni 10.69640477 17.56602033 7.14699510
Ni 10.65960739 1.79975504 8.95053663
Ni 12.48104473 17.51006312 9.03804312
Ni 12.46683951 1.73120324 7.01647936
Ni 10.54791185 0.10394290 10.57202626
Ni 10.46820825 1.77552075 12.40917299
Ni 12.22115580 17.57946867 12.42977403
Ni 12.28435647 1.82169101 10.65801135
Ni 10.49216719 0.02158482 14.07824045
Ni 10.67022688 1.90082690 15.84977696
Ni 12.17280170 0.04089009 15.94088883
Ni 12.34488269 1.80167406 14.03804005
Ni 10.58820819 3.69274932 17.55784327
Ni 10.63576547 5.34336839 1.75716147
Ni 12.39017584 3.61102171 1.72796510
Ni 12.33386899 5.21458815 0.00209940
Ni 10.60800795 3.46838650 3.38997221
Ni 10.66425562 5.17189679 5.22795581
Ni 12.42819136 3.32718784 5.16366564
Ni 12.34981180 5.21728861 3.46839844
Ni 10.51756445 3.33292474 7.01066222
Ni 10.46553650 5.17385280 8.61955817
Ni 12.31529772 3.52392486 8.73339623
Ni 12.31658740 5.36054663 7.01142351
Ni 10.52044934 3.69198418 10.48844542
Ni 10.49608455 5.41458214 12.29288362
Ni 12.29992225 3.51223950 12.33668957
Ni 12.17847338 5.30410561 10.48383676
Ni 10.54088187 3.70853969 13.86931626
Ni 10.45871727 5.29824395 15.76660648
Ni 12.36277514 3.56625336 15.82677159
Ni 12.17589104 5.42831881 14.08050818
Ni 10.84220827 6.89015489 17.41937500
Ni 10.43276101 8.72892273 1.74028717
Ni 12.20966530 7.06879136 1.73494149
Ni 12.45988743 8.75759144 0.06155837
Ni 10.57233728 7.07340190 3.47433404
Ni 10.58877382 8.93808216 5.32400911
Ni 12.26114636 7.13286514 5.18560066
Ni 12.05613161 8.85245046 3.38577818
Ni 10.50855216 7.02986791 7.14540032
Ni 10.79838809 8.75373686 8.76470275
Ni 12.49054357 7.01336013 8.76958177
Ni 12.37871038 8.70845911 6.91720469
Ni 10.55583199 7.02705135 10.36218437
Ni 10.70997270 8.72791726 12.37516832
Ni 12.36567718 6.89260735 12.12794342
Ni 12.42432523 8.94418990 10.47093824
Ni 10.58363382 7.23532798 14.11424405
Ni 10.66544388 8.82485558 16.03691191
Ni 12.52074069 7.05729643 15.79858326
Ni 12.42544411 8.71865463 14.01891888
Ni 10.60537008 10.61230648 0.09682698
Ni 10.37844457 12.32689688 1.64557757
Ni 12.29307354 10.53453198 1.79888006
Ni 12.34071641 12.42384611 17.57261804
Ni 10.41862843 10.58122189 3.41175001
Ni 10.46313522 12.21083424 5.24375473
Ni 12.16347053 10.49725884 5.32004626
Ni 12.16626725 12.30588894 3.60010887
Ni 10.54660691 10.60365251 7.25038572
Ni 10.65018214 12.34245963 8.80104365
Ni 12.47392879 10.60942107 8.84268809
Ni 12.28796421 12.30290223 6.95896554
Ni 10.54005478 10.41917297 10.49875928
Ni 10.62214508 12.18913287 12.38920962
Ni 12.41750478 10.65422950 12.15980739
Ni 12.17890522 12.30336317 10.51174595
Ni 10.65379997 10.34395848 14.32152967
Ni 10.63562009 12.26653217 15.77330528
Ni 12.50140034 10.41211817 15.84660628
Ni 12.46134158 12.15099630 14.14014667
Ni 10.57284175 14.05898039 0.00890070
Ni 10.50316914 15.87076952 1.66796207
Ni 12.46740440 13.94632527 1.79239572
Ni 12.30277250 15.82661959 0.09614376
Ni 10.48084249 14.02631974 3.43718171
Ni 10.53572868 15.79185089 5.33196901
Ni 12.13187094 13.99353069 5.28770715
Ni 12.36757479 15.63816155 3.33293885
Ni 10.54697680 14.03752555 7.14253217
Ni 10.61003660 15.82124132 8.74568737
Ni 12.47562587 13.99780138 8.79065706
Ni 12.31135674 15.80373561 7.09924754
Ni 10.67878825 14.21796169 10.50605264
Ni 10.43963698 15.72020358 12.24092044
Ni 12.33384776 14.04396464 12.43551505
Ni 12.35020154 15.90352803 10.56994558
Ni 10.52959414 13.87935249 14.05111756
Ni 10.48170314 15.84192030 15.83105505
Ni 12.13710101 14.05894577 15.93763939
Ni 12.28024547 15.75995406 14.17425989
Ni 14.05472665 0.05611929 0.03337558
Ni 14.08140812 1.84168772 1.59677524
Ni 15.88078192 17.47356615 1.71313958
Ni 15.90701041 1.62884066 0.01612506
Ni 14.18761236 17.39901432 3.72052911
Ni 14.22803408 1.69198939 5.33094849
Ni 15.91056165 17.48141705 5.35505888
Ni 15.74942785 1.68355778 3.56410151
Ni 13.99121086 17.57566051 6.92323291
Ni 13.89438890 1.76514773 8.95916032
Ni 15.88701130 17.40946264 8.76653147
Ni 15.76356715 1.64122818 7.29741037
Ni 14.12684644 17.53518761 10.67207408
Ni 14.18630928 1.80430633 12.37789107
Ni 15.88164803 0.01112267 12.23361452
Ni 15.87621172 1.59599639 10.45982154
Ni 13.94569663 0.03552621 14.11503887
Ni 14.03407770 1.65122526 15.96975061
Ni 15.88336188 17.58887733 15.86167884
Ni 15.96838907 1.53160873 14.01328203
Ni 14.17338615 3.45497825 17.50581260
Ni 14.26146073 5.23890006 1.76802460
Ni 15.93132624 3.40513249 1.78758471
Ni 15.82344467 5.26493339 17.59025162
Ni 14.18474521 3.38063776 3.60450501
Ni 14.07452168 5.26310656 5.38732700
Ni 15.89177273 3.50746567 5.55756779
Ni 15.82010260 5.28630996 3.67651430
Ni 14.14080922 3.42300511 7.13754678
Ni 14.03064415 5.20156629 8.70548997
Ni 15.71705961 3.41000082 9.04547008
Ni 15.81507711 5.32495917 7.17462477
Ni 14.00745344 3.43221202 10.69170128
Ni 14.03017355 5.33833791 12.13147606
Ni 15.87391967 3.42110417 12.19705002
Ni 15.83999626 5.25740374 10.56069293
Ni 13.94600569 3.69472125 13.93726042
Ni 14.19745497 5.18129490 15.76228103
Ni 15.74355766 3.40359351 15.84166238
Ni 15.98573164 5.26616695 13.90410188
Ni 14.01909662 6.77208698 0.07580088
Ni 13.99588990 8.80279058 1.87072151
Ni 15.71490250 7.09342272 1.91344208
Ni 15.61858189 8.89698020 0.07640673
Ni 13.87550776 7.02838017 3.59256145
Ni 14.17534459 8.69124918 5.41568391
Ni 16.05387473 7.11036699 5.32044097
Ni 15.77104135 8.80277093 3.43297885
Ni 14.21336674 7.10169799 7.08612091
Ni 14.08543912 8.87245323 8.71790589
Ni 15.88930451 7.02029052 8.67223210
Ni 15.94619276 8.83624768 6.95409374
Ni 14.16572232 7.05308136 10.42885044
Ni 14.07701728 8.83161425 12.11894161
Ni 15.70899946 6.98743425 12.24543354
Ni 15.72806701 8.74454141 10.25020524
Ni 14.15693663 7.06006672 14.00495565
Ni 14.32734052 8.76247360 15.82900651
Ni 15.77125822 6.93123065 15.69909836
Ni 15.85690546 8.71147204 14.04798658
Ni 14.15764993 10.62525222 17.54347891
Ni 14.11559692 12.24914593 1.73312841
Ni 15.76214016 10.48133974 1.90474371
Ni 15.75277812 12.34336794 0.04810965
Ni 14.05362799 10.51382933 3.51279735
Ni 14.13651519 12.20187807 5.30004861
Ni 15.90195961 10.60539718 5.15552101
Ni 15.78999116 12.35459545 3.47130956
Ni 14.13741779 10.61377958 6.98600322
Ni 14.15227922 12.41032833 8.71110415
Ni 15.89638939 10.70142559 8.70294001
Ni 15.87589376 12.27537549 7.04233543
Ni 14.07913494 10.85487622 10.44213129
Ni 14.10775325 12.40476383 12.26439306
Ni 15.85896829 10.45547341 12.17866594
Ni 15.95557326 12.46165356 10.56481417
Ni 14.24227775 10.62571641 13.98100451
Ni 14.19036960 12.32820401 15.82584612
Ni 15.82222824 10.62086118 15.82758595
Ni 15.80315109 12.38504005 14.03888263
Ni 14.07131963 14.12971657 17.55588582
Ni 14.12048027 15.81408800 1.70844577
Ni 15.76220019 14.09280191 1.77135456
Ni 15.83068576 15.93518473 0.01612798
Ni 14.06082910 13.87023033 3.54745180
Ni 14.08389008 15.65839293 5.28636910
Ni 15.92379534 14.02144585 5.22758221
Ni 15.94978361 15.78299700 3.47822007
Ni 14.01686535 13.96335756 6.85815928
Ni 14.19571388 15.71067614 8.68151705
Ni 15.78859992 14.14932389 8.87752305
Ni 15.83978304 15.79252224 7.08101821
Ni 13.99160495 14.24528167 10.50415519
Ni 14.07384885 15.88215465 12.46717511
Ni 15.76044264 14.00465536 12.38501486
Ni 15.84407449 15.81306635 10.72773621
Ni 14.09056872 13.99554060 14.19517017
Ni 14.12925102 15.97185627 15.69168682
Ni 15.77345854 14.24349907 15.96384908
Ni 15.84504695 15.78373489 14.03479873
