500
Final configuration Lattice="17.60000000 0 0  0 17.60000000 0  0 0 17.60000000" Properties=species:S:1:pos:R:3
Ni 17.31341538 0.08868740 17.47965895
Ni 17.21266809 1.75414770 1.76135477
Ni 1.44295370 0.17097308 1.68397283
Ni 1.96699708 1.87951469 17.58936884
Ni 17.53295304 17.48977994 3.69233323
Ni 17.42244220 1.45023194 5.55905573
Ni 1.85458450 0.16159435 5.22376593
Ni 1.77412495 1.74696571 3.41776875
Ni 0.01423769 17.37709868 7.02677814
Ni 17.50326073 1.79755861 8.94029118
Ni 1.93673130 0.06141291 8.69229256
Ni 1.59956990 1.62099373 7.24631892
Ni 17.48982559 0.12604887 10.84908909
Ni 17.55475221 2.22802141 12.19345402
Ni 1.98473299 17.57813628 11.96310666
Ni 1.62489374 1.93241321 10.56532260
Ni 0.19044458 0.38801025 14.04858369
Ni 0.33041366 1.88136525 15.94760311
Ni 1.66613669 17.45966664 15.96173416
Ni 1.88540943 2.02871566 14.04259923
Ni 17.47635876 3.41013210 0.10488580
Ni 17.54254017 5.37562930 2.03270966
Ni 1.59396203 3.74532874 1.56223952
Ni 1.92751302 5.41178594 0.05401443
Ni 0.06377667 3.32415590 3.63971002
Ni 0.07725164 5.14732906 5.37384417
Ni 1.52815469 3.10678902 5.49471770
Ni 1.76415191 5.01287533 3.67387621
Ni 17.26436214 3.68399572 7.11714816
Ni 0.16820859 5.20498558 9.00754284
Ni 1.91490771 3.41556072 8.72660063
Ni 1.61531115 5.20470039 6.91928878
Ni 0.13403172 3.72065655 10.57372585
Ni 17.53589448 5.23244083 12.49084980
Ni 1.70288415 3.61952944 12.33793517
Ni 2.14223006 5.32362031 10.36009039
Ni 0.00910216 3.46688877 14.16509166
Ni 17.44701990 5.58643135 16.01529514
Ni 1.68252533 3.96375935 16.10197982
Ni 1.66551730 5.35782233 14.17157141
Ni 0.24897513 7.30986673 0.03191538
Ni 17.55307994 9.12772355 2.09355852
Ni 1.87746020 7.01790324 1.89916382
Ni 1.71120136 8.87233702 0.22028039
Ni 0.16839850 7.11641513 3.43076106
Ni 0.10510361 9.15283965 5.13439315
Ni 1.80607499 6.75817149 5.34926630
Ni 1.93276551 8.69050401 3.73005826
Ni 0.11070900 7.35652574 7.21950636
Ni 17.56882143 9.09960932 8.64615244
Ni 1.66712499 7.15680628 8.81968871
Ni 1.69939073 9.02227000 6.66434350
Ni 0.24957169 6.86191315 10.66846202
Ni 17.57013474 8.48318028 12.37951948
Ni 1.86133223 6.69070787 12.36196712
Ni 1.60575211 8.77706026 10.61371132
Ni 17.31986876 7.03540659 14.20834936
Ni 17.48291915 8.73297381 15.88701322
Ni 1.87710547 6.93660102 15.82128073
Ni 1.90664896 8.61803301 14.14077055
Ni 17.49071393 10.63552880 0.10412408
Ni 17.50592099 12.29575251 1.88276907
Ni 1.45816342 10.58782260 1.92606075
Ni 1.73884143 12.23666110 0.22589634
Ni 17.41460183 10.95908533 3.50623362
Ni 0.13628789 13.03989725 5.38129989
Ni 1.87546662 10.54676181 4.97194437
Ni 1.69413659 12.38786367 3.33349262
Ni 0.08803489 10.75739207 6.84098530
Ni 17.51584055 12.39926687 8.47355220
Ni 1.43426124 10.88990302 8.61303894
Ni 1.76561221 12.42520217 6.95096846
Ni 0.12125458 10.50923830 10.38761482
Ni 17.41183771 12.27886882 12.32001772
Ni 1.65263246 10.51931003 12.16781492
Ni 1.93627412 12.39231326 10.24414583
Ni 0.20591851 10.60380507 14.16255999
Ni 17.18837810 12.33807166 15.71058565
Ni 1.71997569 10.73808915 16.00529056
Ni 1.94592332 12.47832392 13.60017216
Ni 17.52221671 14.12709647 17.31582855
Ni 17.49693039 15.92068320 1.40213283
Ni 1.43158776 14.15045580 1.40297555
Ni 1.56253155 15.79568493 17.53217073
Ni 17.28290529 14.27951122 3.23033944
Ni 17.55538164 15.83681521 5.34364305
Ni 1.93062691 14.40863039 4.73371744
Ni 1.70590236 16.13311981 3.03695474
Ni 0.12914667 14.44037119 7.58726381
Ni 17.33595919 15.79986083 9.18129514
Ni 2.37111780 14.05573477 8.44934669
Ni 1.78819416 15.86779609 6.93735976
Ni 0.16026809 13.68649221 10.05941159
Ni 0.24740100 16.05612441 12.58410249
Ni 1.71487672 14.25256142 11.99494893
Ni 1.64496396 15.57577707 10.36042619
Ni 17.59089784 13.98513669 14.14920940
Ni 0.01127023 15.84900615 15.72250131
Ni 1.81161700 14.31549743 15.61858113
Ni 1.99776068 15.85257203 14.15577604
Ni 3.79487484 0.35602416 0.43209295
Ni 3.43203020 1.98252418 2.03168072
Ni 5.39943135 0.14459689 2.00413925
Ni 5.34043446 1.86119215 17.57514840
Ni 3.85793360 0.05596990 3.60404083
Ni 3.58604898 1.62562648 5.28816271
Ni 5.56596080 0.12345477 5.60151669
Ni 5.54484746 1.81243475 3.44562083
Ni 3.61656923 0.20092282 7.04565354
Ni 3.52261850 1.68745692 8.67090003
Ni 5.35765039 0.08183625 8.66095280
Ni 5.35046892 1.69774850 6.96740962
Ni 3.63825555 0.19787989 10.47868681
Ni 3.30136779 2.09738799 12.27144274
Ni 5.35635037 17.25690423 12.34931263
Ni 5.22577438 1.76066604 10.69844294
Ni 3.87090460 17.52904473 14.05557483
Ni 3.65796130 1.22029878 16.03152539
Ni 5.49395378 0.23111132 15.57263412
Ni 5.16308056 1.85480128 13.73975478
Ni 3.68460425 3.19091597 17.24591087
Ni 3.56221930 5.04557046 1.68202466
Ni 5.30172291 3.41557486 1.63662409
Ni 5.20367180 5.24663707 0.01053878
Ni 3.41492169 3.53224155 3.63675818
Ni 3.31443218 5.01601317 5.32115622
Ni 5.43746871 3.69028345 5.44588566
Ni 4.94371736 5.16531179 3.55243761
Ni 3.38756301 3.45007005 6.76818972
Ni 3.66004043 5.08666125 8.65460082
Ni 5.22941993 3.38177882 8.32215561
Ni 5.34496533 5.27213957 7.20385673
Ni 3.71686897 3.34566012 10.36732312
Ni 3.50678932 4.92339464 12.51218207
Ni 5.76185072 3.59061461 12.25161917
Ni 5.36484595 4.86690419 10.41740400
Ni 3.62707184 3.20292803 14.52807232
Ni 3.73094912 5.17984456 15.82763114
Ni 5.59485139 3.57186278 15.88297434
Ni 5.50800416 5.20905055 14.16274140
Ni 3.50203497 7.24193482 17.46568186
Ni 3.48512631 8.87333290 1.62871518
Ni 5.20863097 6.83498791 1.58629222
Ni 5.23264295 8.83200839 0.07233769
Ni 3.54821463 6.95127784 3.37962428
Ni 3.39669871 8.62113817 5.25075551
Ni 5.00560716 6.83879968 5.35373708
Ni 5.10661615 8.60300669 3.39288038
Ni 3.33006339 6.89393870 7.23048931
Ni 3.53629180 9.03516837 8.72489533
Ni 5.16519444 7.02857050 8.91104257
Ni 5.21975002 8.59349217 6.93137239
Ni 3.36363126 7.18696407 10.40486715
Ni 3.50366886 9.00330439 12.73011189
Ni 5.22555890 6.89179316 12.25290234
Ni 5.43373559 8.85683678 10.74131031
Ni 3.44917220 6.73021386 14.26627064
Ni 3.17098271 8.95562213 16.24153936
Ni 5.37018622 7.29791761 16.01048381
Ni 5.13327452 8.59375324 14.29247988
Ni 3.35311584 10.60787215 0.09477567
Ni 3.54546409 12.17226860 1.81730757
Ni 5.32877681 10.45390123 1.98330082
Ni 5.19421607 11.89510441 0.20418887
Ni 3.52278957 10.24193091 3.58935328
Ni 3.27432356 12.30675620 5.14419060
Ni 5.27011555 10.27919532 5.15044187
Ni 5.22708209 12.30355343 3.51542676
Ni 3.63281844 10.60372009 6.95967398
Ni 3.88018282 12.17234013 8.79586661
Ni 5.46707896 10.27621391 8.84201057
Ni 5.22969665 12.20995095 6.67810731
Ni 3.59289840 10.59785244 10.62834902
Ni 3.98394985 12.32182973 12.61061013
Ni 5.52778475 10.50260647 12.40241162
Ni 5.26718481 12.19836405 10.66730273
Ni 3.37835290 10.69090270 14.31641182
Ni 3.58114417 12.28523928 15.84032152
Ni 5.15684329 10.55772927 16.15860687
Ni 5.45876185 12.23272606 14.28375864
Ni 3.32693141 13.98297802 17.37816208
Ni 3.55560506 16.05209219 1.40544854
Ni 5.44419502 14.02669856 1.84392997
Ni 5.45698786 15.86662372 0.21461717
Ni 3.43770033 14.06650693 3.04333070
Ni 3.79251685 15.93361929 5.17698307
Ni 5.46799687 14.16052689 5.12423370
Ni 5.43555757 15.74484962 3.23745493
Ni 3.70334550 13.97315383 6.52843995
Ni 3.50900854 16.05832868 8.66830993
Ni 5.17502293 14.18790614 8.52470394
Ni 5.51940982 15.89000179 7.03079882
Ni 3.68102880 14.34356316 10.35696859
Ni 3.51343774 15.70661238 12.55646918
Ni 5.57649512 14.16508416 12.43699861
Ni 5.13295625 16.03031973 10.39001023
Ni 3.46151697 14.12711488 14.18795912
Ni 3.46081019 16.08499400 16.18732520
Ni 5.51079680 14.03142686 15.67272528
Ni 5.41958549 15.77313752 13.98707897
Ni 6.95411659 0.12323726 17.48431085
Ni 7.08907918 1.64288530 1.86209774
Ni 8.82701467 0.22875200 1.65251752
Ni 8.76044023 2.19850687 17.57463420
Ni 7.18727224 0.24606980 3.90474392
Ni 6.98603324 1.83825401 5.48656094
Ni 8.89012580 0.14510064 5.48050449
Ni 8.83452138 1.89274041 3.63449883
Ni 7.05312468 17.48733853 7.17050479
Ni 7.25249003 1.81014480 8.90725076
Ni 8.73874905 0.10078653 8.85564799
Ni 8.67541723 1.83777584 6.91896507
Ni 7.16461486 0.00515605 10.66809341
Ni 7.28600836 1.64866936 12.37257496
Ni 8.81344208 17.59484395 12.28843998
Ni 8.91223518 1.73035643 10.72467631
Ni 7.35038697 0.09382141 14.11636701
Ni 7.14802968 1.86540668 15.96573081
Ni 8.94170403 0.20428652 15.84200236
Ni 9.04878416 1.61934474 14.28897835
Ni 7.01069066 3.69532402 0.07967007
Ni 6.92386404 5.10552278 2.20225115
Ni 8.58636562 3.57515204 1.74920502
Ni 8.52412053 5.16488907 0.05798142
Ni 7.20060371 3.37315979 3.58698990
Ni 7.09754881 5.29315239 4.99773928
Ni 8.79772664 3.45495010 5.23051633
Ni 8.77800168 5.31892453 3.41535821
Ni 7.12502628 3.68534966 7.14298487
Ni 7.26392496 5.31637112 9.04625068
Ni 8.67304908 3.50011139 8.85308322
Ni 8.95239095 5.21389828 7.14334006
Ni 7.39071618 3.50272995 10.82049702
Ni 6.99478237 5.44064731 11.97681785
Ni 8.90101576 3.47842451 12.45410334
Ni 8.94739917 5.35301841 10.47934868
Ni 7.06544717 3.31176570 14.19433617
Ni 6.90742039 5.56090354 15.99100702
Ni 8.61912458 3.53362704 15.65498468
Ni 8.66264126 5.24043663 14.12006077
Ni 6.94812012 7.02618754 0.25370603
Ni 6.85004545 8.82549599 1.82059388
Ni 8.78377779 6.99916473 1.90840494
Ni 8.69103841 8.71096409 17.57794883
Ni 6.66634447 7.11428490 3.41751396
Ni 7.05480807 8.72267915 5.09310141
Ni 9.07000938 7.04792331 5.07786901
Ni 8.83043807 8.58223551 3.39195506
Ni 7.04936226 7.03295367 6.67679696
Ni 7.21747027 8.77900061 8.56464677
Ni 8.92763666 7.08425595 8.61449681
Ni 8.76318587 8.72524914 6.88913325
Ni 6.87603589 7.08300126 10.50873023
Ni 7.22694285 8.84459266 12.16620985
Ni 8.86360847 6.93922536 12.35047111
Ni 8.71294368 8.67783614 10.45690354
Ni 6.89194237 7.09856130 13.86391270
Ni 7.00586288 8.86378561 15.81108129
Ni 8.52334721 7.08228982 16.03045870
Ni 8.88683145 8.63831067 14.08652608
Ni 7.07147803 10.65988776 17.53107460
Ni 7.11821231 12.13937491 1.79441560
Ni 8.80305827 10.27372590 2.05540502
Ni 8.70153172 12.24744500 0.23285735
Ni 6.88891504 10.47818985 3.59789235
Ni 7.01654004 12.17808565 5.18483778
Ni 8.64723355 10.35994793 5.27057737
Ni 8.83592463 12.00008119 3.44690809
Ni 6.96141238 10.23499545 6.85141077
Ni 6.99578787 11.97751909 8.66879938
Ni 8.72956225 10.63977453 8.62494689
Ni 8.44663770 12.42706038 6.96264398
Ni 7.14401254 10.69787273 10.58418674
Ni 7.17549704 12.24358660 12.21505815
Ni 8.88809408 10.41113120 12.28464661
Ni 8.60839514 12.45140342 10.53451540
Ni 7.01408200 10.28420872 14.13675870
Ni 7.08952197 12.19993698 15.70346452
Ni 9.09091508 10.39147761 15.64624788
Ni 8.55107953 12.15855411 14.07256059
Ni 7.21829223 14.07711063 0.23736217
Ni 7.17834857 16.29193162 1.82408718
Ni 8.97627544 14.09386586 1.68261224
Ni 8.60170779 15.99952140 0.02544216
Ni 7.41406892 13.81617527 3.52667158
Ni 7.15823382 15.88659265 5.14285534
Ni 8.96822207 13.89577993 5.29954665
Ni 8.85766833 15.64648344 3.59193480
Ni 7.08034322 14.18735121 7.07060068
Ni 6.88443217 15.71925826 8.71425544
Ni 8.81859796 14.29706689 8.79908051
Ni 8.81335609 15.68572190 6.96262270
Ni 6.95368745 13.89754006 10.24354710
Ni 7.39051395 15.66382879 12.40039753
Ni 8.92689821 13.78081523 12.26438447
Ni 9.16005894 15.94891105 10.49696644
Ni 7.41068035 14.14403425 14.20461245
Ni 6.94738299 15.83184388 16.08385526
Ni 8.75403970 13.67349324 15.71877114
Ni 8.95151860 15.84925632 14.31034908
Ni 10.34732177 0.22180162 17.47523103
Ni 10.30288193 1.92449149 1.77637501
Ni 12.00360729 0.04455180 2.09096198
Ni 12.37653331 2.14688603 17.48494033
Ni 10.21235111 17.53612543 3.64244123
Ni 10.69772230 1.83029794 5.49825588
Ni 12.35764138 0.13488909 5.38888646
Ni 12.06859308 1.77414350 3.60763263
Ni 10.71219415 0.28068980 7.11146489
Ni 10.16921324 1.69954348 8.87846841
Ni 12.45485119 0.17737612 8.76353373
Ni 12.36809743 1.96503429 6.88144006
Ni 10.53448688 0.06489485 10.73793201
Ni 10.62489123 1.52997875 12.57224059
Ni 12.22825447 17.44543081 12.51571444
Ni 12.06861346 1.82484711 10.33793269
Ni 10.72567191 17.40565001 14.53603594
Ni 10.93697118 1.73444902 15.79705734
Ni 12.31299241 17.52801323 15.93276208
Ni 12.33048030 1.52487023 14.05285319
Ni 10.56853656 3.67079627 17.30827546
Ni 10.43377968 5.18930373 1.53258613
Ni 12.77804594 3.71600156 1.70658933
Ni 12.45584047 5.29527012 17.57428183
Ni 10.56855501 3.55397598 3.36893963
Ni 10.51218580 5.13048517 5.16717473
Ni 12.17984297 3.57025382 5.07252771
Ni 12.26606251 5.48284834 3.62695300
Ni 10.27743066 3.30809981 7.13380220
Ni 10.80509698 5.34614268 8.64747787
Ni 11.92870854 3.26358948 8.79970618
Ni 12.38912720 5.09633740 6.98656528
Ni 10.64797238 3.60858342 10.86415802
Ni 10.68307348 5.64394856 12.32775776
Ni 12.33769263 3.48403081 12.68858075
Ni 12.27751661 5.31043766 10.28518314
Ni 10.70328206 3.54542810 14.11945998
Ni 10.39596731 5.42777139 15.54247445
Ni 12.56629826 3.81695682 15.59397397
Ni 12.57328129 5.44210183 13.90165390
Ni 10.40822883 6.81843882 17.43521080
Ni 10.36142678 8.71135791 1.77581967
Ni 12.19768664 7.17302780 1.60894679
Ni 12.01679140 8.86527754 17.52500851
Ni 10.56162620 7.03947333 3.46371500
Ni 10.38047772 8.99684254 5.31642433
Ni 12.40772938 6.93077793 5.29554281
Ni 12.32594989 8.79422689 3.61642525
Ni 10.61993842 6.86813675 7.03441450
Ni 10.51322412 8.80154906 8.72040724
Ni 12.27579720 7.26121862 8.52823356
Ni 12.47013594 9.07983636 7.15551086
Ni 10.73214952 7.05031875 10.40188681
Ni 10.59451429 8.87589215 12.24904646
Ni 12.68648674 7.25234839 12.26371534
Ni 12.04047018 8.72877456 10.44961026
Ni 10.55245780 7.09161901 13.99163094
Ni 10.62797639 8.53424766 15.74461067
Ni 12.31881873 6.80338174 15.88570760
Ni 12.30193051 8.60887999 14.15994978
Ni 10.50711949 10.52611819 0.09324551
Ni 10.62385083 12.20006402 1.67902087
Ni 12.27222322 10.09258691 1.75588555
Ni 12.27850124 12.16433675 17.40115857
Ni 10.82620795 10.47685520 3.45147479
Ni 10.49210262 12.09358464 4.93930086
Ni 12.21781681 10.57183315 5.35923926
Ni 12.38569724 12.29903561 3.70411917
Ni 10.29603371 10.62433426 6.91262086
Ni 10.30130499 12.34920714 8.72404744
Ni 12.45154716 10.57135677 8.85566729
Ni 12.08400325 12.19398843 6.86376932
Ni 10.06747725 10.46762523 10.51435387
Ni 10.58256858 11.94765024 12.28385550
Ni 12.29727985 10.37408919 12.17811306
Ni 12.25998458 12.24591085 10.36169185
Ni 10.74085409 10.35667163 14.06094825
Ni 10.44858459 12.10604350 15.73644904
Ni 12.34256053 10.50992493 16.00111112
Ni 12.22308105 12.26207016 14.25980170
Ni 10.64182113 13.84079673 0.14172236
Ni 10.41095814 15.98135826 1.63860599
Ni 12.40851240 14.10707754 1.76066913
Ni 12.10367353 16.27568331 0.16983176
Ni 10.73472314 14.40322258 3.17684536
Ni 10.68274977 15.63085548 5.22502502
Ni 12.30655864 14.15540538 5.28218200
Ni 12.43821316 15.70881502 3.52833577
Ni 10.32629575 14.00368112 7.07747395
Ni 10.62392955 16.25185329 8.69926774
Ni 12.36292316 14.04594112 8.37795639
Ni 12.26279869 15.84622440 6.89655527
Ni 10.71884902 14.09575260 10.34723880
Ni 10.37676288 15.80812800 12.43439857
Ni 12.25561716 13.51601409 12.41530809
Ni 12.47677935 15.79221318 10.51602319
Ni 10.31564256 14.06603899 14.08506281
Ni 10.51696719 15.85388321 16.27207423
Ni 12.24269935 14.20522881 15.77390064
Ni 12.07069436 15.66146223 13.86682217
Ni 13.73382439 0.10552404 17.44057958
Ni 14.24216512 1.79470517 1.55754675
Ni 15.74333517 17.53472351 2.00683477
Ni 15.49938611 1.75606389 17.47183700
Ni 13.93706041 0.35194437 3.60935764
Ni 14.30754954 1.47804924 5.48937451
Ni 15.86713174 17.26739355 5.29718541
Ni 15.87676621 1.67479662 3.64757089
Ni 13.93892822 17.41144557 7.11656993
Ni 13.81582735 1.91350665 8.87121854
Ni 15.69009130 0.13762401 8.73441321
Ni 15.67382265 1.77385762 7.16550074
Ni 13.95931084 17.52044208 10.75030209
Ni 13.90268862 1.58592622 12.15248632
Ni 15.99588298 0.18880447 12.52161490
Ni 15.68969649 1.67341134 10.60383928
Ni 14.09357788 0.02973829 13.78831782
Ni 14.15410001 1.52527222 15.64480564
Ni 16.16178131 0.30836298 15.72193405
Ni 15.97470369 1.94283077 14.21869320
Ni 14.05851085 3.57013598 17.45181568
Ni 14.01450957 5.50063055 1.74600831
Ni 15.77393720 3.56881420 1.82263354
Ni 16.00166581 5.47037997 0.27986584
Ni 14.09658357 3.09459349 3.82484257
Ni 14.15397929 5.17885197 5.57743593
Ni 16.11397123 3.44832945 5.25616218
Ni 15.69430979 5.03411391 3.59799546
Ni 14.17068915 3.45615772 6.89831929
Ni 14.08387635 5.19582345 8.74032344
Ni 15.56840536 3.38277184 8.80074854
Ni 16.04818965 5.65429533 6.87209022
Ni 14.01360788 3.42349484 10.75251840
Ni 13.96371801 5.38100175 11.80687541
Ni 15.88364271 3.58286285 12.50480817
Ni 15.85013210 4.85284636 10.56439709
Ni 14.15765968 3.16417672 13.92044580
Ni 14.21489581 5.61011700 16.06748756
Ni 15.86079175 3.58733449 16.04502191
Ni 15.60697218 5.37504069 13.94221190
Ni 14.01229325 7.50750912 17.58946122
Ni 14.16018558 8.81187278 1.76768122
Ni 15.76840366 7.08068917 1.79063925
Ni 16.05073158 8.76334736 0.20111872
Ni 14.19420521 7.09088604 3.94641521
Ni 14.15607417 8.78458952 5.32813203
Ni 16.09776862 7.25777677 5.03820049
Ni 15.93678328 9.05735442 3.40608072
Ni 14.08676759 6.95310706 7.11083628
Ni 14.53742981 8.83094908 8.62977257
Ni 15.96948848 6.97163555 8.82477669
Ni 16.12452241 9.04115304 6.79793803
Ni 13.67893780 7.20530974 10.32625002
Ni 14.13944015 9.10311336 12.24183170
Ni 15.95801980 6.83360804 12.24762646
Ni 16.07500047 8.53889727 10.50046666
Ni 14.34825609 7.35391903 14.09874495
Ni 13.82496123 8.81244970 15.77926912
Ni 15.87076286 7.22138415 16.18889543
Ni 15.93959363 8.87910647 14.30096361
Ni 13.95553236 10.57767557 0.06166567
Ni 14.01224329 12.34749443 1.74386104
Ni 15.85173832 10.53895564 1.68923553
Ni 15.85748664 12.33690368 17.54201739
Ni 13.82821241 10.49956486 3.54435827
Ni 13.99243488 12.32221984 5.24103163
Ni 15.81673278 10.68970235 5.22988669
Ni 15.82519780 12.44964781 3.62795146
Ni 14.18316865 10.59557124 6.96546838
Ni 14.18061425 12.47699536 8.69194935
Ni 15.96144350 10.80356896 8.64468360
Ni 15.62754728 12.47262385 6.84986900
Ni 14.38538776 10.56776197 10.28486376
Ni 14.35107100 12.15237746 12.10194471
Ni 16.10928193 10.33932978 12.24009407
Ni 15.72880162 12.44299062 10.33259363
Ni 13.78875247 10.42443697 14.15614456
Ni 13.86910054 12.55278707 16.15922804
Ni 15.73611069 10.49864668 16.08323417
Ni 15.76994961 11.83558193 14.03279139
Ni 14.02581119 14.29024448 0.02370004
Ni 13.95044563 16.00843160 1.80177405
Ni 15.87017853 14.30952448 1.51738205
Ni 15.61934826 16.13298893 17.50037186
Ni 14.03936155 13.80704665 3.31911752
Ni 14.02521080 15.71193504 5.16570682
Ni 15.80362946 14.23381690 5.23267695
Ni 15.51211857 15.83106945 3.50197211
Ni 14.11718505 14.19127216 6.93865782
Ni 14.16314138 15.85558008 9.05076412
Ni 15.88404388 14.24838189 8.94569996
Ni 15.70873087 15.79309860 7.24791814
Ni 14.05706076 14.03343973 10.49956256
Ni 14.18434159 15.50705229 12.81026413
Ni 16.03981078 14.11004894 11.90893018
Ni 15.81835717 16.08523016 10.87632458
Ni 14.11488606 13.59047329 13.94767310
Ni 13.81241864 15.90170149 15.56899643
Ni 15.73091800 14.17663899 15.98882599
Ni 16.05615605 15.78015710 14.16902187
