500
Final configuration Lattice="18.07500000 0 0  0 18.07500000 0  0 0 18.07500000" Properties=species:S:1:pos:R:3
Cu 17.18846120 3.10492760 8.96815445
Cu 3.88651857 0.13751642 2.97155890
Cu 15.21412228 11.75603597 17.26887238
Cu 2.87082283 13.75583040 14.25872754
Cu 11.56500533 11.61813564 6.85747926
Cu 13.97384363 6.29913342 5.71066251
Cu 3.17993310 4.08358677 7.12924887
Cu 3.28255234 5.02490351 13.40631494
Cu 12.92575942 11.20593004 1.78940147
Cu 11.02164017 1.83896000 15.43030876
Cu 0.38970489 13.46356815 6.80068047
Cu 9.88634735 2.53123127 10.62644074
Cu 9.12036296 8.56104197 3.31451747
Cu 4.18879398 4.56725274 11.43707234
Cu 7.89941375 1.72177011 4.02531477
Cu 8.28170142 13.25378385 17.79602213
Cu 10.78078532 7.39536566 0.51808551
Cu 11.37815888 12.74179692 4.42018012
Cu 12.93895313 2.29920906 16.80929137
Cu 4.24947714 13.65750765 18.01639138
Cu 1.17385815 6.01083727 1.36039910
Cu 2.38256027 10.45251425 12.79916543
Cu 6.38421184 11.76743085 15.39595901
Cu 16.57589381 13.97959623 16.24780667
Cu 6.17454410 12.29920832 13.08173622
Cu 9.25208705 9.18599928 14.65964662
Cu 14.67126698 0.05054904 7.19794092
Cu 7.68468036 12.71964866 8.43729866
Cu 12.71687148 17.47382926 7.61637206
Cu 7.04627592 6.75302372 9.45823103
Cu 3.10648332 15.81810787 9.15205912
Cu 17.12392553 0.24796298 0.90801043
Cu 1.60135027 3.01285980 12.40101929
Cu 2.46440261 4.48656161 9.12322482
Cu 14.60066742 14.89549595 3.60732696
Cu 8.31631712 15.56999306 15.45725890
Cu 18.04394995 0.66251021 9.62391773
Cu 12.54333982 8.67726966 0.76438113
Cu 4.43247035 9.55526624 12.07298657
Cu 15.71068933 11.88495036 8.83035886
Cu 11.65922738 13.72148642 8.26523485
Cu 10.32127514 8.95577670 5.31290083
Cu 16.57614583 9.69330701 14.24845531
Cu 1.09161982 2.92602082 17.83066100
Cu 0.22892406 6.04950751 12.35246582
Cu 0.52351826 5.52416667 16.50481984
Cu 14.02926896 7.59118600 16.62006624
Cu 8.71674638 6.20140166 0.34467464
Cu 16.00736437 10.55953019 12.35827887
Cu 17.37248945 11.05519930 0.88099389
Cu 5.78341550 14.97973104 1.11317472
Cu 10.08932476 3.46363036 8.70936777
Cu 11.61131640 11.63379478 10.43589758
Cu 3.27892651 2.31194435 4.05879193
Cu 10.81099327 1.54531443 0.67249226
Cu 8.63389726 13.95392513 11.83026461
Cu 0.89671631 8.55820088 9.66062692
Cu 10.80007320 9.56462496 0.14826371
Cu 15.45899592 3.10456083 2.83039353
Cu 7.30033570 1.16387949 10.20248080
Cu 14.93799060 7.47492080 8.16010932
Cu 2.90924534 14.59630631 4.33961037
Cu 16.63503398 9.07429236 6.62120541
Cu 9.24680603 7.60705470 13.27322672
Cu 16.16085292 6.11290141 16.34115363
Cu 6.23599355 1.52662924 2.64651477
Cu 14.50279589 16.48227897 5.11149417
Cu 13.30557194 1.01832635 5.68529689
Cu 2.71524656 0.24926438 12.95278634
Cu 1.39862434 17.62420229 15.22544096
Cu 0.42247318 4.72143802 7.52269054
Cu 14.67670552 9.23873075 10.91705417
Cu 13.57784529 12.84031861 3.77985516
Cu 9.60014905 10.70646661 4.30435184
Cu 9.41800946 0.17458146 10.39282193
Cu 2.26280580 4.84211336 3.34884244
Cu 7.56979960 7.46121018 14.91045084
Cu 17.72118137 16.11233714 15.88313406
Cu 4.30354635 1.86261963 16.14743649
Cu 4.97048070 10.33038734 14.18588983
Cu 11.88463250 0.13532686 17.01737779
Cu 2.32097441 13.63675779 10.02316988
Cu 2.96970188 14.21152025 2.17368985
Cu 16.67095628 7.15570491 9.57989772
Cu 0.11555283 1.83444008 2.27337443
Cu 1.11991113 11.57417517 9.27002142
Cu 2.63207794 0.43725882 9.75387682
Cu 16.89226239 4.94806788 10.15015533
Cu 5.80575073 9.46205209 0.90850788
Cu 8.72267723 16.84713286 6.54056516
Cu 5.16858883 7.80677901 2.44892940
Cu 2.52520652 16.93715965 3.98823282
Cu 4.23352169 12.21338154 2.09625996
Cu 16.19741078 1.35964549 13.02838591
Cu 6.98443161 13.48496902 5.61475856
Cu 13.70220209 10.81965078 15.15629625
Cu 17.29440785 4.90484101 14.87621373
Cu 16.01093330 10.79257120 4.77002072
Cu 6.53289310 1.59519166 6.42445001
Cu 10.44271925 0.08318731 8.20042227
Cu 7.06439929 17.79801226 8.68647933
Cu 1.56549273 8.41567757 4.44960423
Cu 6.10883843 8.94959678 10.37753002
Cu 4.11201254 2.86477899 13.94195221
Cu 3.26270178 16.78028517 11.19228293
Cu 7.62503705 2.32130810 13.24042115
Cu 0.72017235 12.62445871 11.22969023
Cu 2.74272811 0.84248145 5.73880083
Cu 8.62177898 12.67364603 3.52645107
Cu 9.25904233 14.21465597 7.58212881
Cu 12.08320798 12.28495347 12.53424456
Cu 3.03781576 18.00142636 7.66180285
Cu 1.48362757 0.72959287 4.12011790
Cu 8.16534383 15.97369269 13.08012549
Cu 4.52625541 4.95107029 15.30590117
Cu 5.96418130 13.61056525 9.91659302
Cu 14.48763458 8.44245496 1.36654371
Cu 4.77511517 14.49171941 5.93779967
Cu 0.94968427 13.74676924 13.77458668
Cu 12.72683586 16.24188447 11.30691246
Cu 11.78789448 5.64169645 9.41531458
Cu 8.42414930 3.32209404 5.41456098
Cu 2.50198190 9.69504471 10.49944664
Cu 13.57100156 2.26956090 3.95194368
Cu 5.59751451 16.29158312 9.84279597
Cu 2.61667571 6.50834191 15.81170499
Cu 13.01435195 6.44192975 14.40094438
Cu 0.58340932 7.55286663 7.69814972
Cu 11.97645532 2.75644390 5.77928312
Cu 3.37988557 9.02754615 0.88422361
Cu 9.53173873 15.36179174 17.12740909
Cu 1.63244001 16.46074568 13.30648228
Cu 9.11943476 17.55648594 4.32224380
Cu 7.85255393 6.99069954 11.52916893
Cu 16.97770776 15.01352469 13.96718630
Cu 15.81466127 11.81985242 14.69704138
Cu 13.88505501 6.97556004 3.20359553
Cu 13.69230756 14.03747237 17.87154448
Cu 15.92862360 4.76502176 6.00438803
Cu 10.22829693 14.21581459 9.98051636
Cu 11.76352687 15.36740108 0.77172413
Cu 8.92771023 11.82441225 10.33831331
Cu 7.04403973 10.67040487 9.22952941
Cu 12.39678430 4.79467658 2.14704576
Cu 4.74516821 0.19235620 9.33980142
Cu 14.55895322 4.90315364 8.24799089
Cu 14.11186878 11.06418317 5.88464972
Cu 0.52833548 9.63351599 13.15267619
Cu 14.75170407 13.85176551 7.04457960
Cu 0.74752154 0.82226167 12.13212469
Cu 11.73894958 1.88528537 8.41729955
Cu 12.77343255 13.09774045 6.09350231
Cu 15.41182505 14.29557763 9.40838253
Cu 14.28801776 5.12711631 16.89118324
Cu 5.82144355 1.29978051 13.73242148
Cu 14.95522666 11.06196303 1.19258875
Cu 0.03105005 6.63923298 3.29503481
Cu 2.05467400 3.04256230 1.95908925
Cu 13.22403391 15.49106670 14.55220029
Cu 8.48982919 8.74297170 9.00259389
Cu 0.53846697 1.30098373 7.49353799
Cu 12.17379217 10.59991433 5.05795746
Cu 5.55223565 12.61338798 7.08643845
Cu 14.37784068 17.61082414 15.93559295
Cu 3.67388531 12.46280643 11.95413840
Cu 14.88829001 6.50715277 10.20432164
Cu 11.41752886 17.97928256 11.73366299
Cu 2.34576927 2.30127145 8.36400858
Cu 2.56217695 7.07177748 8.80964334
Cu 17.60439070 16.85247178 12.95124119
Cu 16.67232987 16.24073260 9.75651387
Cu 7.33095371 16.84772512 11.23079255
Cu 14.32696349 12.02789214 12.82063914
Cu 9.90902014 5.20818692 7.11101065
Cu 2.17266027 4.70839192 0.21943535
Cu 12.64395305 3.74562818 8.32555152
Cu 9.90889664 7.28704254 15.93406446
Cu 16.18172648 5.00252506 3.66885039
Cu 16.61313973 16.57801580 7.35969765
Cu 10.36000994 3.65005344 12.47065513
Cu 1.88582053 2.92281027 5.90025137
Cu 16.02785820 6.82185100 4.52001930
Cu 6.01667762 5.76861233 7.52734077
Cu 6.05718872 16.83503012 13.93258526
Cu 4.70631840 15.95752975 3.36342280
Cu 12.82193312 6.81627596 7.58571443
Cu 8.01950726 0.54409068 12.25615716
Cu 16.94373113 8.28225622 11.51560258
Cu 9.92265789 12.04361287 8.12930218
Cu 5.89656055 5.23542474 2.52881410
Cu 4.76083604 7.28805413 12.21794227
Cu 4.87811132 11.15473175 10.05374071
Cu 6.29869895 12.06306721 3.95858478
Cu 5.87339243 9.90608999 5.04860894
Cu 11.63094244 9.59258903 15.72845478
Cu 11.42282678 16.78229650 2.55029016
Cu 11.64180500 14.34578284 11.92495164
Cu 6.92157038 9.44873329 3.19133324
Cu 17.31904542 8.84905624 4.63377631
Cu 4.60330166 1.11252159 7.00229827
Cu 4.35362086 14.10292699 8.42933071
Cu 5.64514151 18.02168867 11.63566463
Cu 7.99836170 5.47622951 6.03552855
Cu 10.81531990 17.42366011 0.75121178
Cu 10.86822748 15.88326235 7.38521900
Cu 4.45623368 15.97126006 12.88555411
Cu 8.83613247 9.23605930 16.79801368
Cu 16.11255759 14.44369588 1.24465650
Cu 16.89550925 12.00362067 6.71174378
Cu 7.75335885 2.41893632 17.85558047
Cu 3.50499818 8.47856719 17.06040680
Cu 12.00916006 4.80521409 6.57553744
Cu 3.72924299 5.95897865 6.53292209
Cu 6.24017547 5.34557674 11.34723522
Cu 6.22796105 0.75652024 16.11201220
Cu 1.89972174 14.33760705 7.97514553
Cu 16.72188156 6.01365817 7.86762040
Cu 13.92457429 3.87125028 6.07993361
Cu 2.00623101 7.12636322 17.71963499
Cu 0.11331713 4.20536797 1.18495338
Cu 4.78598146 6.36281740 9.47220883
Cu 10.13170916 16.04903251 14.08085939
Cu 1.53979485 0.14478266 1.78840265
Cu 9.23917633 12.68847536 6.01482426
Cu 6.54537892 14.61642588 11.94833910
Cu 16.84778611 2.40675862 0.08420186
Cu 0.41533950 15.12013720 1.16745576
Cu 0.14214536 1.49001453 5.42139529
Cu 8.98946755 11.27316984 0.71205050
Cu 9.49433332 14.51056155 1.23363090
Cu 16.41682550 5.19922567 12.57340154
Cu 3.86223754 0.14438488 14.61684872
Cu 11.02337101 6.95160284 5.96148858
Cu 6.42107803 1.90344117 8.50365675
Cu 15.06607518 1.21322239 1.53019317
Cu 0.52126483 15.39825699 5.49398400
Cu 13.24265660 1.90252133 10.13092658
Cu 3.97782569 10.02378909 6.40707321
Cu 10.27062963 4.18098135 0.32388476
Cu 8.10346915 9.44683633 1.22311616
Cu 15.63628871 7.02673648 13.43648519
Cu 18.04200313 1.54317036 14.22901513
Cu 3.45513394 17.60879151 16.76544984
Cu 8.05830281 9.66414533 5.13210776
Cu 3.92997928 8.29063656 9.61864043
Cu 9.80564015 6.51875668 3.97269858
Cu 9.14898096 16.60604911 2.14546469
Cu 9.97336580 12.17778576 12.58673637
Cu 5.02724139 10.07748550 8.18257472
Cu 17.64995076 10.65639687 8.28971189
Cu 15.64957954 16.88662388 2.04770594
Cu 12.00856275 9.84573223 9.04540228
Cu 6.44738045 6.10849837 0.75836721
Cu 4.49331629 6.89624117 17.93054483
Cu 8.95026703 2.98514259 1.87753657
Cu 12.59014353 6.36029912 17.44041481
Cu 7.03700883 17.53073238 3.65398432
Cu 12.82301613 6.32874748 11.50812569
Cu 7.54570370 4.66905177 17.14948658
Cu 1.43273502 2.61384106 10.28985105
Cu 1.13642389 1.24477716 16.66873932
Cu 8.37439908 10.99664780 13.79752375
Cu 15.01030046 14.00859026 14.73797739
Cu 7.02745660 8.06659771 7.17691722
Cu 15.09376089 3.31202170 13.96862147
Cu 16.56157771 16.08963187 17.83137538
Cu 1.27063969 10.89243862 6.10473959
Cu 13.94125979 6.08500643 0.91169269
Cu 0.38932033 17.51154500 6.26563777
Cu 3.29297384 12.09033744 8.56460387
Cu 5.90076972 6.44936295 13.84441129
Cu 6.64716338 3.84018699 1.11301615
Cu 6.41095233 15.55721171 5.05487953
Cu 6.49813946 17.32724234 6.28133360
Cu 17.44823743 3.37607836 13.34170590
Cu 1.13511958 17.07761297 17.56833075
Cu 16.76260015 12.11554048 10.64476267
Cu 2.40300184 9.49330339 14.77970486
Cu 9.93125387 5.87344719 14.28347868
Cu 9.36614337 1.74213975 16.72029524
Cu 2.79980212 6.26318873 11.30468647
Cu 13.72932101 17.43302728 2.66326272
Cu 14.05361250 4.46276873 3.61560649
Cu 2.48318641 16.08401586 1.24749915
Cu 6.99530417 11.48868573 11.16781286
Cu 17.90325161 12.11734485 4.71133362
Cu 1.92071755 14.92740585 11.93957872
Cu 13.11041649 2.63384471 14.75673367
Cu 10.12036708 15.98445858 11.86179303
Cu 4.14392117 14.67869714 10.88104339
Cu 2.01012078 2.46744096 14.60567105
Cu 5.97075248 12.02794291 0.10527014
Cu 11.60582245 7.56710835 2.56467167
Cu 16.23225535 17.43902898 14.67300299
Cu 5.57822609 4.16077311 13.31026850
Cu 4.87818613 3.26460611 8.32797379
Cu 11.28411637 3.13543815 2.76975173
Cu 5.89472412 3.48191386 10.38818920
Cu 3.95507417 11.00725009 0.27269480
Cu 3.63998862 2.02604838 10.56195802
Cu 4.31738123 9.96172740 3.19913163
Cu 12.97539718 13.46928254 15.40634441
Cu 1.48404327 15.48649646 15.13720166
Cu 5.75328825 16.46422474 16.38964266
Cu 11.98659494 17.30777886 14.63093481
Cu 1.55218547 12.29981337 3.08218987
Cu 1.58010484 10.79404736 17.69335805
Cu 2.71947083 4.07950682 16.14018894
Cu 0.67142554 14.48325489 3.48969540
Cu 12.60992919 8.02846735 5.05057839
Cu 7.93703934 3.24648141 10.97225799
Cu 3.74095039 4.14416409 4.95602490
Cu 4.70706536 17.82905605 0.36077191
Cu 17.81320979 7.32226125 14.20096102
Cu 12.99668758 10.51289121 17.60540374
Cu 12.30870469 4.03545013 11.25633153
Cu 17.62834976 13.16332084 8.92342892
Cu 0.85214955 6.01500303 9.87602563
Cu 10.82861407 14.24683548 6.03347860
Cu 2.23315897 16.02077123 6.65212593
Cu 11.96680586 12.73506315 0.80460279
Cu 4.80035976 3.01762211 2.31048024
Cu 10.47867652 3.76582334 14.92079860
Cu 1.18441224 16.77276438 8.47746267
Cu 7.85654664 14.74940426 9.87892558
Cu 13.11662182 7.94869140 9.49115805
Cu 7.37945122 3.31576968 7.50667084
Cu 3.64725676 11.94188622 14.01326193
Cu 3.81109490 5.56037397 1.71427022
Cu 15.97215992 0.61794876 5.54064842
Cu 8.31967080 4.94128583 9.40182224
Cu 5.63483738 13.77332865 2.84694728
Cu 1.09496602 11.49603730 14.78117938
Cu 8.81261100 1.66403538 8.22553721
Cu 10.04575248 5.20153231 16.68557713
Cu 3.90610663 7.87559263 14.35006232
Cu 16.41588438 0.03166784 11.28384795
Cu 6.17042670 15.06657372 7.80067314
Cu 5.99302700 3.30840621 4.16547092
Cu 12.27779523 4.44511218 13.63278851
Cu 16.52331876 8.32970894 17.62963177
Cu 6.51716433 8.45260623 12.94566150
Cu 6.53005434 10.12205468 16.97057806
Cu 6.82866604 13.68160392 16.41222823
Cu 2.44009457 10.70173338 4.13542342
Cu 15.33021678 13.18114504 5.11095394
Cu 4.19276028 15.67527746 17.57952778
Cu 10.20718906 2.70986288 6.75659667
Cu 5.55977832 1.84266196 0.15931643
Cu 0.42549025 15.23573294 9.57846673
Cu 12.13973325 4.92701869 15.71806570
Cu 15.56807873 2.69677336 5.07394767
Cu 0.12297041 3.82695768 3.71751937
Cu 11.88884451 1.02351455 2.87098589
Cu 7.84961182 4.96468827 3.45189330
Cu 17.13523107 5.83669632 0.05860862
Cu 7.57494351 16.03244856 17.83234302
Cu 13.53332143 11.86266203 8.03511669
Cu 11.02925343 7.71798786 8.52640685
Cu 16.84990262 15.39699167 3.00828862
Cu 13.41962358 13.76440472 13.38109351
Cu 16.18096378 6.80950133 2.01256426
Cu 3.98689086 12.66354411 4.13549546
Cu 17.82268243 10.26682832 16.56223464
Cu 12.14955525 9.34968095 6.79106878
Cu 14.81236838 5.67009374 14.84877056
Cu 16.41035568 1.00720696 7.73047670
Cu 17.82586358 6.17374239 5.73358328
Cu 11.50152979 17.17464631 9.75034957
Cu 12.61851086 14.66273917 4.76181066
Cu 11.55443998 16.54502068 5.35353642
Cu 12.44777488 8.50679453 11.39402201
Cu 5.71349736 8.04161040 15.76559156
Cu 2.27940980 12.62438083 0.43537178
Cu 1.48541258 7.60290987 12.97618023
Cu 17.73173357 3.16974819 16.25141526
Cu 12.59224859 10.00260151 13.23745285
Cu 10.20568485 17.22888498 16.16924112
Cu 3.56716674 7.97711823 3.92210916
Cu 4.10633403 15.83666200 14.95484117
Cu 3.02040342 12.18081865 16.29258493
Cu 10.93546275 6.31430828 12.46342006
Cu 7.82078725 5.37210772 15.24220994
Cu 7.99846013 18.04333216 17.37127964
Cu 11.38609509 8.26501111 14.04642095
Cu 10.40721931 9.71310733 12.51757764
Cu 12.77637954 16.08496861 16.93333729
Cu 8.23062968 0.33394224 14.93428162
Cu 1.98448175 14.69625452 17.30456045
Cu 14.80352408 17.41913289 0.11245333
Cu 4.65106872 14.01306106 15.83462237
Cu 17.17014465 17.08782577 4.66673601
Cu 10.12467264 10.00789598 10.07730313
Cu 15.66031543 1.58564619 9.97354755
Cu 10.93541922 10.99014440 14.26657565
Cu 14.06751052 9.71361681 7.80200405
Cu 13.95974836 2.90969262 12.13619298
Cu 2.27781951 6.23447190 4.95670614
Cu 14.40982830 4.34277632 10.39535320
Cu 1.31067357 5.42067652 14.30676813
Cu 12.21781039 14.25328700 2.62435357
Cu 14.94714527 1.61429665 17.12698720
Cu 6.98390526 10.88616835 7.22304252
Cu 16.09942844 0.63427092 3.41262547
Cu 11.00644517 13.61389185 13.98652629
Cu 10.78702391 12.69070468 16.80494327
Cu 0.66633928 16.70997955 2.96421077
Cu 8.85433186 7.40639673 5.93708676
Cu 17.59477066 3.45986336 6.00983601
Cu 0.11581063 12.68552849 16.53445719
Cu 2.52179095 8.28339907 6.34580360
Cu 11.89330659 2.11211322 12.16973659
Cu 16.52357892 9.08775881 2.06920708
Cu 14.98102765 15.98693240 13.23346196
Cu 9.98193203 15.10620752 3.90111326
Cu 15.44748676 3.61943688 16.06497715
Cu 15.40032531 16.01666349 11.25094594
Cu 5.67146960 6.15053721 5.38234941
Cu 12.95654718 13.98625167 9.85302278
Cu 10.21968280 4.19499236 5.00861130
Cu 7.61565424 13.80769798 13.78082654
Cu 11.98625460 5.66407358 3.88568582
Cu 12.96263765 15.32035131 6.96579743
Cu 14.20004647 9.28486667 3.30204480
Cu 14.89331597 15.41781389 16.25146116
Cu 6.70908920 17.59686086 1.41236546
Cu 10.05104651 5.04489955 10.84357458
Cu 15.24266929 9.75959526 16.33043527
Cu 10.96430874 0.55481171 5.91733636
Cu 0.10880206 10.46884283 2.89600759
Cu 17.96261590 10.04083742 10.84146503
Cu 14.80608753 14.06174502 11.34860928
Cu 1.79893753 12.85830132 5.00691387
Cu 0.78054307 17.16895901 10.88574445
Cu 8.24657560 9.69581685 11.37310088
Cu 3.23360406 1.84969787 0.30715114
Cu 0.03448858 13.03968545 1.64300188
Cu 9.22678117 13.51615130 15.39016721
Cu 14.22571550 13.27755125 1.70909072
Cu 8.53749732 0.91525225 1.57485440
Cu 4.50151268 4.30960062 17.93663175
Cu 7.56736729 7.44649674 2.03261952
Cu 14.60472060 8.95352248 13.01752790
Cu 17.43470812 2.30254725 11.44539015
Cu 3.49524014 12.68994326 6.34135747
Cu 15.96892695 9.21117971 9.10555821
Cu 14.01673189 5.41329663 12.86737437
Cu 14.65362707 9.02513258 5.51126058
Cu 17.32273918 14.85973952 11.42285003
Cu 5.10218878 2.31678749 12.02341716
Cu 8.20120416 4.74808883 12.73302168
Cu 17.17392402 0.43022068 16.42999281
Cu 13.98303229 15.90897645 8.82429949
Cu 13.51943281 8.81958919 15.00546595
Cu 5.61728509 0.87375739 4.66541404
Cu 8.97724143 6.89570530 8.02991339
Cu 7.76571095 15.15155985 3.00120280
Cu 9.93869606 1.99990513 4.41470112
Cu 12.49789373 4.28031267 0.09389651
Cu 10.07128105 0.58421891 13.57587518
Cu 11.14901240 14.88614869 16.05663851
Cu 5.32177320 14.23776668 13.72885507
Cu 11.36967425 9.94851490 2.64365145
Cu 17.42620657 12.09195225 13.10367045
Cu 10.39855545 12.06469164 2.56278327
Cu 4.34161106 10.67165493 16.24449047
Cu 6.12134325 6.07541037 16.24717004
Cu 14.15120154 17.84805986 9.60866636
Cu 3.89499288 16.41393406 5.49617576
Cu 10.16055962 5.63584942 2.19946473
Cu 16.11442667 1.70486112 15.17789952
Cu 9.21788897 16.35663667 9.43596650
Cu 7.50744412 7.71167152 17.08995472
Cu 4.66790095 8.07696998 7.22236832
Cu 9.41843016 10.43743483 6.66331441
Cu 2.35155834 7.44673006 2.13258717
Cu 13.66023005 3.07445921 1.25461935
Cu 13.04434495 0.82432368 0.88890824
Cu 14.18863589 17.81592741 11.91250736
Cu 8.77439883 11.28394607 15.95618757
Cu 7.28857028 9.47167000 15.11993891
Cu 8.50276379 0.73397743 5.87680142
Cu 13.99633230 11.77296997 10.40815613
Cu 7.07212471 7.10919024 4.10199167
Cu 16.51033711 13.02957514 3.24046749
Cu 7.60645497 13.18552838 1.79063817
Cu 16.68897704 14.78202554 5.91002818
Cu 10.13159170 7.23943065 10.39987942
Cu 2.08041848 10.49146956 1.98855088
Cu 0.54591112 8.57246510 1.19196260
Cu 4.65222257 16.58568660 7.71812944
Cu 14.71834996 2.42780597 8.46635164
Cu 2.63181679 9.52422773 8.04116461
Cu 8.26081659 2.82238013 15.45295942
Cu 0.48457057 8.40913504 15.79184835
Cu 13.83020905 15.55373695 1.50111706
Cu 13.36687213 1.02124608 13.31473473
Cu 15.94015191 4.28483529 0.87573208
Cu 5.38112852 3.64428878 6.36147131
Cu 6.15941325 3.40691842 15.57477562
