500
Final configuration Lattice="24.75000000 0 0  0 24.75000000 0  0 0 24.75000000" Properties=species:S:1:pos:R:3
Pb 24.71812416 0.05767762 0.05730822
Pb 0.06061316 2.53914251 2.36825446
Pb 2.45917278 24.69570154 2.55700312
Pb 2.52187232 2.46055722 0.06377725
Pb 0.04826264 0.03674695 5.05289388
Pb 0.10965140 2.25744451 7.67909049
Pb 2.41073220 24.67694934 7.41493144
Pb 2.48476823 2.42356488 4.89100265
Pb 24.66277805 24.60202240 9.99765621
Pb 0.07452786 2.36005614 12.35710569
Pb 2.58381620 24.61444514 12.38390233
Pb 2.44813788 2.47733225 9.98955505
Pb 24.68397049 0.11543560 14.85048905
Pb 24.67268806 2.51964956 17.31772069
Pb 2.38651706 24.63240095 17.41159733
Pb 2.54850356 2.52033775 14.80963285
Pb 24.66509934 24.73242045 19.93095129
Pb 24.74903232 2.53672276 22.25769262
Pb 2.54193060 24.73767169 22.28285733
Pb 2.33471490 2.53496709 19.83506533
Pb 0.03775179 4.81591260 0.06532607
Pb 24.68004085 7.40628585 2.36000360
Pb 2.42746113 4.95902084 2.45739348
Pb 2.50862467 7.42467660 24.71810503
Pb 0.09574600 4.82070094 4.99014672
Pb 24.60664947 7.37020565 7.49517078
Pb 2.33145023 5.18635846 7.33732685
Pb 2.14991609 7.52114351 4.88733490
Pb 24.72395958 4.93549698 9.86585690
Pb 0.06095440 7.37632187 12.37395979
Pb 2.41204021 4.96598102 12.39418790
Pb 2.34064234 7.52123569 9.81752933
Pb 0.12871147 4.86374972 15.10468323
Pb 0.11668368 7.44738166 17.31925617
Pb 2.52656157 4.90981922 17.51926496
Pb 2.51181127 7.33317019 14.75871180
Pb 0.00096768 5.05068316 19.85825303
Pb 24.72661433 7.41569184 22.45851996
Pb 2.64549874 5.00238346 22.27028410
Pb 2.54057689 7.46626107 19.82099041
Pb 24.67004139 10.03746367 0.00537330
Pb 0.00237497 12.46447525 2.42128201
Pb 2.36995329 9.86113742 2.41359172
Pb 2.38334909 12.51075166 24.67575969
Pb 24.53082916 10.04573267 4.86909633
Pb 24.65204914 12.43282498 7.41053693
Pb 2.20058289 10.03254341 7.39411179
Pb 2.54339414 12.41857741 4.92178348
Pb 24.67107592 10.00006640 9.79915749
Pb 0.05397883 12.36042813 12.19524271
Pb 2.30299683 9.89287368 12.32769836
Pb 2.58737104 12.42531377 9.83438102
Pb 0.00981166 9.88305531 14.81739960
Pb 0.01122045 12.34555139 17.40755248
Pb 2.49176478 9.97015639 17.39354616
Pb 2.44613670 12.37693074 14.75989378
Pb 24.71396043 9.89698687 19.73582833
Pb 24.74664094 12.39291388 22.29188311
Pb 2.37557326 9.86426226 22.23841564
Pb 2.60751774 12.35042210 19.81222616
Pb 24.54698223 14.87162274 24.47560311
Pb 24.62568023 17.24641455 2.41942319
Pb 2.46138256 14.90660038 2.35733625
Pb 2.57353036 17.17755063 24.54802932
Pb 0.01756492 14.93240926 4.79759341
Pb 24.62199336 17.33858863 7.38157733
Pb 2.53598320 14.94225542 7.36329784
Pb 2.50097403 17.28555849 4.96939438
Pb 24.55503399 14.91172406 9.83773825
Pb 24.68939765 17.40639079 12.42358843
Pb 2.41127837 14.95433140 12.32879110
Pb 2.36210012 17.43388144 10.05195584
Pb 24.64613449 14.70328121 14.66167144
Pb 24.70323994 17.42931933 17.25919026
Pb 2.38139380 14.84215047 17.24727629
Pb 2.51261772 17.32687309 14.74074679
Pb 0.07660110 14.85911874 19.97833037
Pb 24.61937572 17.58165240 22.28441241
Pb 2.48921723 14.73808448 22.21230030
Pb 2.45724712 17.26963128 19.84658927
Pb 24.70847107 19.75365056 0.23007892
Pb 24.71981504 22.48365352 2.49082920
Pb 2.59692275 19.67792366 2.33679381
Pb 2.61140902 22.37545574 0.04352276
Pb 24.70443481 19.58055129 4.97523265
Pb 24.65979539 22.31291628 7.55544915
Pb 2.41659210 19.89517643 7.63477576
Pb 2.45875883 22.20138394 4.99412084
Pb 24.65264838 19.98089104 10.01451498
Pb 24.63309883 22.22576650 12.42525055
Pb 2.43287254 19.74450449 12.47086586
Pb 2.44507276 22.31829900 10.00418322
Pb 0.01297025 19.92344427 15.00376251
Pb 24.68904862 22.41177520 17.47493570
Pb 2.32819822 19.94483611 17.43315972
Pb 2.51208878 22.31108563 14.89484020
Pb 0.27143083 19.85098550 19.97994212
Pb 24.72207234 22.42728948 22.37984042
Pb 2.55684911 19.91398644 22.41545264
Pb 2.33457354 22.36917062 19.93907150
Pb 5.09129994 0.15196420 24.66553868
Pb 4.96085484 2.31040304 2.48800354
Pb 7.49502317 24.68110377 2.58254816
Pb 7.51298795 2.47355706 0.16540052
Pb 4.89120910 0.07993787 5.02402134
Pb 4.76266506 2.47831556 7.38331623
Pb 7.45102106 24.62859000 7.37435481
Pb 7.44504841 2.47488882 5.03994612
Pb 4.96031577 0.08617711 9.90273594
Pb 4.95970226 2.38481993 12.35176468
Pb 7.48690756 24.72265294 12.40208167
Pb 7.39120844 2.31176342 9.90238265
Pb 5.00251601 0.02645049 15.02231117
Pb 4.98962479 2.35888205 17.41917003
Pb 7.32711113 24.67922495 17.40875213
Pb 7.56285491 2.53293113 14.83261839
Pb 4.86077118 24.69919565 19.91638173
Pb 4.96519863 2.55790250 22.30653525
Pb 7.53505183 0.05750527 22.39208996
Pb 7.34154138 2.52400246 19.92494120
Pb 4.93063056 4.97790468 0.32592330
Pb 5.04969432 7.51710282 2.54333200
Pb 7.47568298 4.93660485 2.54642236
Pb 7.59564105 7.59062348 24.55300117
Pb 4.78954705 5.02119218 4.94840095
Pb 4.99415148 7.36869571 7.41529032
Pb 7.19485192 4.84371614 7.34321765
Pb 7.44803978 7.42413307 5.00229354
Pb 4.69627256 4.89450073 9.92232653
Pb 4.91418000 7.43333735 12.38810817
Pb 7.14322562 4.83163571 12.27943596
Pb 7.42893849 7.35099908 9.95561116
Pb 4.78986297 4.74105225 14.93822966
Pb 4.81700173 7.47439521 17.08637274
Pb 7.28622168 4.91880588 17.30813864
Pb 7.33145429 7.38808456 14.82302663
Pb 4.86296650 5.01110775 19.78982850
Pb 5.07506958 7.28597263 22.30312845
Pb 7.55739748 5.12195624 22.36924769
Pb 7.40592021 7.29547287 19.82483955
Pb 4.92222840 9.88123342 0.08433060
Pb 4.94685560 12.35703646 2.45966780
Pb 7.48307881 9.93474662 2.38829993
Pb 7.60640438 12.48814763 0.23971427
Pb 4.91116411 9.87760206 4.87843482
Pb 4.94822138 12.16786992 7.58280799
Pb 7.53883642 9.97729166 7.23200762
Pb 7.32050791 12.49132068 4.93592226
Pb 5.01122793 9.78102647 9.82325238
Pb 4.98641791 12.34043770 12.31500549
Pb 7.35772019 9.83146148 12.28726485
Pb 7.40369934 12.39997855 9.92842759
Pb 4.82360184 9.86886544 14.69065987
Pb 4.94190473 12.18806067 17.19205805
Pb 7.35254512 9.83791977 17.14302603
Pb 7.31930367 12.26286921 14.67596254
Pb 4.96097129 9.80100968 20.02277955
Pb 4.82242375 12.34499487 22.19985880
Pb 7.57115373 10.12758915 22.16119323
Pb 7.24250434 12.34393343 19.88224928
Pb 5.13478156 14.91646957 0.08721336
Pb 5.08215622 17.33635303 2.41315983
Pb 7.44632683 14.90437143 2.57927273
Pb 7.59294213 17.27545950 24.73962682
Pb 5.02839940 14.96653494 4.93334224
Pb 4.99479078 17.28161926 7.50365970
Pb 7.41498990 14.88894069 7.62282655
Pb 7.39767942 17.27784039 5.04809361
Pb 4.96436728 14.93582777 9.87263524
Pb 4.96032703 17.33776268 12.39006561
Pb 7.36624815 14.80053922 12.45594900
Pb 7.51655572 17.37639318 10.07411594
Pb 4.91607867 14.77205153 14.83248035
Pb 4.97463172 17.36743764 17.10399838
Pb 7.39341898 14.62808100 17.28177667
Pb 7.41835153 17.07030211 14.93853342
Pb 4.93992145 14.84537107 19.68411687
Pb 5.08111685 17.18952947 22.33450006
Pb 7.63805279 14.73878242 22.18873331
Pb 7.43746140 17.20617434 19.50229091
Pb 5.19148286 19.82288517 24.71215665
Pb 4.96684349 22.25964827 2.43060536
Pb 7.38408986 19.80933460 2.54340479
Pb 7.46557432 22.40596440 0.05045084
Pb 4.81254887 19.61263004 4.90911823
Pb 4.91350426 22.29479736 7.54126645
Pb 7.43064735 19.79961491 7.45821717
Pb 7.35514767 22.21638360 4.94956978
Pb 4.99400585 19.68625629 9.92192185
Pb 5.16690423 22.30325170 12.38482728
Pb 7.45553419 19.76948451 12.54835136
Pb 7.42255456 22.19151897 9.93353003
Pb 5.12094684 19.84280644 14.92446368
Pb 4.97157712 22.19726165 17.56938008
Pb 7.45602007 19.94674687 17.41433086
Pb 7.49683198 22.27848484 14.91811819
Pb 4.83231341 19.67719510 19.78834392
Pb 5.02383225 22.30850004 22.40324099
Pb 7.62115156 19.59946860 22.21208481
Pb 7.46993052 22.37301538 19.89944853
Pb 9.98045075 24.74379011 24.73864791
Pb 9.97429973 2.50760527 2.59081802
Pb 12.22777255 0.17755793 2.43242068
Pb 12.36440167 2.51910578 24.74462670
Pb 9.89251316 24.54850336 4.86823991
Pb 9.79576043 2.39511786 7.50307427
Pb 12.39170516 24.65402174 7.32833061
Pb 12.36257123 2.37257254 4.96039137
Pb 9.75415566 0.06633265 9.87573137
Pb 9.72689797 2.51207581 12.33799574
Pb 12.46666405 0.04427012 12.31600523
Pb 12.55736888 2.52716875 9.83202071
Pb 9.72610349 24.66947620 15.01278420
Pb 9.71808269 2.49802195 17.37754942
Pb 12.16733188 24.56727308 17.26207779
Pb 12.14401838 2.49541155 14.67157817
Pb 9.93749209 0.01738376 19.79525086
Pb 9.95653319 2.34100966 22.19244718
Pb 12.44349455 24.72549446 22.35968580
Pb 12.43268017 2.35390233 19.63796181
Pb 9.95908953 4.80135091 0.09982971
Pb 9.73245424 7.53569504 2.44836357
Pb 12.35309176 4.96225175 2.61432691
Pb 12.42774503 7.38606760 24.48187387
Pb 9.80372767 5.02514967 4.97156741
Pb 9.75871900 7.56272647 7.39521652
Pb 12.24843429 4.97169475 7.39281702
Pb 12.48638546 7.48521168 4.92326358
Pb 9.68547350 4.96255670 9.83263679
Pb 9.86564117 7.34390217 12.17893839
Pb 12.15963121 4.82856192 12.23075952
Pb 12.36118882 7.44953765 9.86142698
Pb 9.79348144 4.98410087 14.71253983
Pb 9.76257350 7.25634138 17.28436509
Pb 12.20209005 4.83178700 17.21689913
Pb 12.44350710 7.25783482 14.83233083
Pb 9.91173749 4.90724401 19.71434343
Pb 9.92647910 7.52843504 22.06873670
Pb 12.35103745 4.80751246 22.20250878
Pb 12.25694301 7.15919922 19.55015084
Pb 10.13788510 10.03200422 24.74127049
Pb 10.13642165 12.40220664 2.50070496
Pb 12.44476479 10.06795584 2.39624174
Pb 12.54076957 12.59516532 0.11445090
Pb 10.17273702 10.00383087 4.91456807
Pb 10.16846969 12.38065406 7.55337130
Pb 12.43095439 9.80115236 7.42489818
Pb 12.55400910 12.37764716 5.07142934
Pb 10.04173798 9.91765634 9.90918484
Pb 9.80276879 12.13061354 12.50132899
Pb 12.39569840 9.86429898 12.53339393
Pb 12.36165626 12.39942469 10.20146607
Pb 9.85666547 9.66599004 14.75365554
Pb 9.80323915 12.25719674 17.15160726
Pb 12.42176682 9.69947363 17.11518493
Pb 12.53821273 12.22670705 14.92357344
Pb 10.03196595 10.04599925 19.66480244
Pb 10.09583188 12.46080856 22.28043298
Pb 12.50782182 9.83199677 22.13478637
Pb 12.44232163 12.32548268 19.67940748
Pb 10.00902565 14.79133786 0.16654799
Pb 9.91702561 17.38453129 2.43298156
Pb 12.44887827 15.00069499 2.60652220
Pb 12.56328156 17.25129973 0.11308866
Pb 9.94620533 14.79174786 5.08548013
Pb 10.11943632 17.46096243 7.52615467
Pb 12.47881570 14.89964581 7.36873817
Pb 12.56855736 17.49292373 4.92574286
Pb 9.99102497 14.83622812 9.99785472
Pb 9.99361861 17.38062880 12.38423037
Pb 12.44344494 14.95560720 12.37108791
Pb 12.39675669 17.41934892 10.08702679
Pb 9.80209295 14.82332934 14.88294167
Pb 10.01196683 17.30082253 17.24847603
Pb 12.31218519 14.78505153 17.18834286
Pb 12.57932154 17.26465340 14.85419372
Pb 9.95648103 14.63059090 19.65801523
Pb 10.09146066 17.13820387 22.40487606
Pb 12.57584295 14.78363840 22.37879146
Pb 12.32819639 17.15519505 19.73036225
Pb 9.96167430 19.90948985 24.68626417
Pb 9.98255238 22.26985313 2.51566378
Pb 12.53046346 19.69035095 2.37549088
Pb 12.31440340 22.32971346 0.03785253
Pb 10.05310598 19.87788034 4.77470548
Pb 9.85165701 22.29486502 7.52027863
Pb 12.44813933 19.93500901 7.53648063
Pb 12.44938189 22.32550034 4.94546448
Pb 9.91461051 19.90338038 9.99860132
Pb 10.05763873 22.24600592 12.50195765
Pb 12.36108785 19.77072891 12.48590081
Pb 12.41941433 22.27720012 9.93485682
Pb 9.80924616 19.84722824 14.96019929
Pb 9.88035712 22.16505458 17.47334546
Pb 12.38437702 19.72358293 17.33251566
Pb 12.44240535 22.26455961 14.84117790
Pb 10.00782276 19.71197388 19.66056107
Pb 9.76091565 22.26686090 22.22981735
Pb 12.16875897 19.88113245 22.30230610
Pb 12.32208595 22.23293920 19.80759624
Pb 14.81624667 0.02233529 0.08966610
Pb 14.75095360 2.48424001 2.65851978
Pb 17.35124712 0.05637716 2.41580599
Pb 17.17843583 2.41492743 0.16327213
Pb 14.85624784 24.64433148 4.89752097
Pb 14.99210749 2.36245538 7.42775160
Pb 17.38568509 24.59529576 7.36229777
Pb 17.25094897 2.52433480 4.98232233
Pb 15.01351083 0.13937962 9.80339690
Pb 14.92104290 2.33998437 12.30962239
Pb 17.35304102 24.68308767 12.43359436
Pb 17.45111457 2.49501244 9.68462484
Pb 14.82865045 24.58156336 14.87782052
Pb 14.83531078 2.43966803 17.23985032
Pb 17.28790992 24.73711337 17.43188447
Pb 17.35351629 2.40683410 14.98598438
Pb 14.82175855 24.67795900 19.86063628
Pb 14.93050262 2.55985791 22.38285187
Pb 17.31370166 0.00620989 22.21309208
Pb 17.35557154 2.58645618 19.85360577
Pb 14.68545818 4.87701605 0.03375228
Pb 14.77937010 7.46600596 2.36805757
Pb 17.33706681 4.92964183 2.43457750
Pb 17.09078843 7.32770597 24.59061020
Pb 14.90941377 5.10270286 4.99733104
Pb 14.91692289 7.52890159 7.46093342
Pb 17.41748220 5.05479730 7.41930992
Pb 17.25058763 7.48560384 4.86943940
Pb 14.87570577 4.95181266 9.96106651
Pb 14.72292906 7.24588163 12.34354652
Pb 17.29964669 4.90932310 12.54904185
Pb 17.37826396 7.37579668 9.83980152
Pb 14.79469598 4.86570201 14.83279457
Pb 14.92110554 7.28656183 17.29216564
Pb 17.22509122 4.86534320 17.27385806
Pb 17.37674450 7.29736801 14.74026684
Pb 14.74003379 4.76824713 19.90741655
Pb 14.77527526 7.32460649 22.18181073
Pb 17.46234133 5.00227703 22.21204708
Pb 17.32153980 7.31406951 19.79103486
Pb 14.78672788 9.94786447 0.03141652
Pb 14.81960299 12.44946286 2.57679613
Pb 17.27150001 9.98900178 2.37634602
Pb 17.19665224 12.41973659 24.70504894
Pb 14.79896112 9.85199447 5.03027371
Pb 14.87228458 12.44837054 7.40968119
Pb 17.38197183 9.95207607 7.53352135
Pb 17.25567042 12.31917897 4.99294325
Pb 14.68364548 9.91117649 9.79287625
Pb 14.88508270 12.38887287 12.41853548
Pb 17.29077499 9.98921388 12.26556768
Pb 17.45168065 12.35564285 9.88278481
Pb 14.98788266 9.84493128 14.85865019
Pb 14.98030368 12.29435393 17.28869245
Pb 17.49135060 9.78981481 17.37063853
Pb 17.42276320 12.34088064 14.91317450
Pb 14.72544607 9.86333803 19.58090948
Pb 14.83277020 12.24701821 22.15839106
Pb 17.35155195 9.69878905 22.23812421
Pb 17.38538755 12.34336497 19.81082082
Pb 14.91253334 14.93348951 0.15945302
Pb 14.99090197 17.42974764 2.51522454
Pb 17.39342342 14.78796137 2.35137636
Pb 17.33232069 17.39324961 24.59655546
Pb 14.90404699 14.86337161 4.99178460
Pb 14.75395887 17.64419343 7.62542475
Pb 17.39741642 14.79406505 7.47845798
Pb 17.16266660 17.21211198 5.06403550
Pb 14.85549836 14.92263501 9.72025617
Pb 14.93335008 17.51259201 12.41762188
Pb 17.29321294 14.86638932 12.33755986
Pb 17.41182507 17.36561193 9.94208117
Pb 14.89296113 14.85236438 14.88936133
Pb 15.01383657 17.38107782 17.28383712
Pb 17.28168513 14.76277526 17.33851573
Pb 17.34336742 17.39167869 14.95691895
Pb 14.82828335 14.76322415 19.64084927
Pb 14.70536836 17.24999628 22.10583562
Pb 17.37054972 14.82054321 22.29632023
Pb 17.22644617 17.34629032 19.80243647
Pb 15.06269976 19.83039322 0.02220195
Pb 14.67085320 22.29340265 2.38044606
Pb 17.21114622 19.93388787 2.51785198
Pb 17.33063561 22.39121107 24.73470201
Pb 14.92309343 19.87625440 5.01042821
Pb 14.96618750 22.30326607 7.45409166
Pb 17.39619796 19.87827476 7.30546710
Pb 17.28666097 22.27346898 4.72389544
Pb 15.13609047 20.01589748 9.96566586
Pb 15.00516483 22.33832514 12.47950718
Pb 17.27923641 19.86249495 12.52960347
Pb 17.41505637 22.35915133 9.88087866
Pb 14.66977747 19.85363818 15.10551240
Pb 14.76965029 22.39501459 17.33909588
Pb 17.29186800 19.91318804 17.40494353
Pb 17.42430418 22.27084464 14.99282033
Pb 14.70872145 19.78574267 19.72869337
Pb 14.92390217 22.41978938 22.36165182
Pb 17.27362738 19.83880416 22.17267318
Pb 17.20146513 22.22764221 19.87572798
Pb 19.85898500 0.08513486 24.56377147
Pb 19.77024051 2.39654309 2.50757310
Pb 22.25817596 0.06458599 2.57166917
Pb 22.08019505 2.40419702 0.02481402
Pb 19.72745041 24.61814679 4.81557863
Pb 19.77038735 2.34740620 7.40987195
Pb 22.21402182 24.68282734 7.43109721
Pb 22.31226408 2.45133041 5.08426490
Pb 19.75558144 24.68773613 9.82800175
Pb 19.80326255 2.36007179 12.47903884
Pb 22.22624266 24.64973071 12.38459605
Pb 22.42127946 2.38094100 9.88765230
Pb 19.83376990 0.13818206 15.05491789
Pb 19.79481341 2.70757758 17.41770689
Pb 22.26175307 24.73537487 17.26995497
Pb 22.34905995 2.52402215 14.85203582
Pb 19.74648554 0.07268690 19.94410905
Pb 19.64367126 2.54855059 22.21956587
Pb 22.30559539 0.09992943 22.24447918
Pb 22.25199532 2.57583964 19.77353000
Pb 19.66043927 4.74103976 0.11643644
Pb 19.57520915 7.42673555 2.47981341
Pb 22.22519078 4.86341575 2.53380849
Pb 22.13397798 7.25681604 24.69187975
Pb 19.84104590 4.93462925 5.01559760
Pb 19.94497565 7.52339475 7.53329107
Pb 22.31279657 4.78830514 7.34539272
Pb 22.22399404 7.39391650 4.88036498
Pb 19.70720108 4.85767469 9.91128178
Pb 19.80217207 7.35992765 12.38633789
Pb 22.46964569 4.92594086 12.30961518
Pb 22.32961784 7.44667648 9.98656408
Pb 19.93767077 4.88471980 14.86538440
Pb 19.84423468 7.37843979 17.25810586
Pb 22.27687306 5.06292298 17.31407010
Pb 22.41281648 7.34992479 14.87232622
Pb 19.89749981 5.01372762 19.76170399
Pb 19.89531071 7.27777279 22.25358648
Pb 22.34991527 5.07389448 22.32220724
Pb 22.31241130 7.55801597 19.77158786
Pb 19.64312557 9.89116442 24.65899814
Pb 19.78463689 12.33633321 2.43089470
Pb 22.25974894 9.87774883 2.18837006
Pb 22.23863046 12.48847764 24.61493424
Pb 19.84857761 10.02015094 4.86681795
Pb 19.83677261 12.48354792 7.50928053
Pb 22.35727462 9.99004931 7.51004338
Pb 22.24458718 12.52544340 4.85370433
Pb 19.84005100 9.95103768 9.90412682
Pb 19.77413148 12.49356353 12.38499726
Pb 22.11469272 9.93009387 12.35907581
Pb 22.22665458 12.47716402 10.02909249
Pb 19.81703502 9.92509135 14.91074796
Pb 19.75415561 12.35673560 17.44015991
Pb 22.33231948 10.04477648 17.41134156
Pb 22.12357483 12.29981408 14.96981897
Pb 19.65614195 9.88518052 19.98674219
Pb 19.86633548 12.42376129 22.34830879
Pb 22.14490736 9.73938518 22.18978273
Pb 22.24223100 12.52685896 19.77494202
Pb 19.83471242 14.96016628 24.66169904
Pb 19.61693662 17.44352560 2.52502862
Pb 22.31679703 14.96059779 2.38182337
Pb 22.17595083 17.20261852 0.01308584
Pb 19.75396060 14.87683668 4.83912101
Pb 19.79039283 17.24418905 7.44712577
Pb 22.23058069 14.96788886 7.36798578
Pb 22.12167649 17.32693259 4.94602535
Pb 19.76502774 14.92848538 9.82779086
Pb 19.73403803 17.36705322 12.46899619
Pb 22.17926705 14.94660816 12.32169721
Pb 22.20766871 17.51595274 9.87898928
Pb 19.74872376 14.86526494 14.83804147
Pb 19.71163825 17.29000065 17.45793702
Pb 22.42824011 14.87203965 17.23343316
Pb 22.14184057 17.40241729 14.82413013
Pb 19.83683277 14.74069053 19.83025748
Pb 19.87208095 17.39278065 22.13944726
Pb 22.20083371 14.83059224 22.25800592
Pb 22.29324489 17.21363742 19.83333448
Pb 19.80639146 19.88811799 24.61073999
Pb 19.82400786 22.28821817 2.35429808
Pb 22.15208191 19.59644594 2.46844591
Pb 22.44184897 22.40412320 24.63406701
Pb 19.71786237 19.94237325 4.88741640
Pb 19.95545609 22.33300467 7.32658737
Pb 22.22752766 19.82170498 7.33100470
Pb 22.46454816 22.20512328 4.79624413
Pb 19.63741210 19.82139961 10.10798931
Pb 19.70759114 22.21994056 12.52627431
Pb 22.22822752 19.82645360 12.55189574
Pb 22.24213926 22.24404022 10.04223130
Pb 19.80990443 19.90369659 15.03111106
Pb 19.74556414 22.27050964 17.48587283
Pb 22.32146185 19.80914668 17.42970655
Pb 22.07523643 22.32500173 14.96481120
Pb 19.77161539 19.82174707 19.83211383
Pb 19.80180395 22.27186093 22.35924049
Pb 22.28559415 19.94615868 22.13758799
Pb 22.18696726 22.38861872 19.75233555
