500
Final configuration Lattice="17.60000000 0 0  0 17.60000000 0  0 0 17.60000000" Properties=species:S:1:pos:R:3
Ni 12.56695250 15.53739368 16.80795862
Ni 16.28762829 15.45223542 16.23856901
Ni 5.81633942 15.10021426 1.95779785
Ni 0.86367173 14.76854253 1.06102642
Ni 6.44838938 1.27533412 12.71876185
Ni 9.61385952 17.36626179 2.19128400
Ni 1.07364002 0.27109840 0.20409829
Ni 10.18231722 5.55531341 2.11748943
Ni 1.92639688 14.70193956 7.32839435
Ni 3.41191766 2.54959000 12.17637435
Ni 3.60546644 1.11280834 4.01212037
Ni 2.37120178 8.61282294 4.93411870
Ni 1.16902302 2.82875915 5.50472895
Ni 12.37934350 4.50131027 10.12578730
Ni 17.40586452 13.12792440 17.40482473
Ni 2.50406244 15.58280093 9.62537039
Ni 12.32927022 0.27502548 13.75548417
Ni 14.80167565 6.48496108 2.01630799
Ni 15.43888427 0.41692783 10.36261387
Ni 13.97519950 3.94277084 0.90987450
Ni 12.90524273 2.10753343 4.62668306
Ni 1.94941511 0.63059238 2.51452154
Ni 6.52033793 5.31897295 7.43714498
Ni 13.71907483 5.20588014 12.16181791
Ni 4.84677162 4.79268000 14.41294423
Ni 4.24835124 15.49229225 7.88236188
Ni 16.61263934 2.96907120 14.78628667
Ni 1.70510155 0.63566193 5.29443072
Ni 6.64107459 1.56505720 15.10106440
Ni 17.12633154 3.77190423 11.36033331
Ni 1.40303540 6.80107788 5.10535436
Ni 11.24881008 6.62444057 15.30013741
Ni 0.97546813 6.06469847 7.33265193
Ni 6.33529694 4.31156873 5.24362084
Ni 12.35555691 3.85987057 16.78480119
Ni 9.05669508 7.38185105 7.86683229
Ni 14.77224311 13.84786116 6.08923352
Ni 14.89354247 10.04235265 9.91691627
Ni 13.30889246 16.68674831 10.36851941
Ni 3.71504889 6.11019904 12.83969978
Ni 16.10892709 11.64113646 3.08364320
Ni 16.17292376 5.18659468 3.84445412
Ni 0.06765810 5.23597244 9.29087965
Ni 2.87730314 7.24322413 16.86251437
Ni 15.71876341 5.45651151 10.99381221
Ni 1.38866699 10.31895433 10.48329211
Ni 16.70011768 14.72463131 2.60616253
Ni 3.11310089 7.72001666 8.97431040
Ni 12.07445084 8.23740637 7.20453236
Ni 17.17958061 0.72459623 8.28309292
Ni 12.08934183 14.66317255 9.34312893
Ni 0.81929824 12.17170845 4.88391581
Ni 5.10253338 9.35297365 2.55595000
Ni 0.58383822 8.29737484 3.49046227
Ni 5.57849892 14.18349644 13.77096118
Ni 17.18362754 9.79036567 8.51619345
Ni 10.51137003 15.69315540 13.21824800
Ni 7.73493897 14.49751858 13.12088967
Ni 6.40601638 0.08733257 10.74492052
Ni 9.17026770 9.04092675 13.82146953
Ni 3.46640992 12.34284903 3.59605684
Ni 3.08300258 14.35111719 13.41165014
Ni 8.27441158 4.91770792 6.10549639
Ni 0.42585104 10.17539142 17.36928599
Ni 2.18945965 3.80025990 8.50426167
Ni 6.50866357 12.24471421 15.46622909
Ni 5.32825883 10.88930538 4.93202626
Ni 17.29215556 8.17660609 12.65839806
Ni 4.09687742 4.96077531 7.85353243
Ni 9.07646714 9.76819030 9.79380148
Ni 7.17729095 5.54542117 14.77319578
Ni 2.20672524 14.18762146 11.47478856
Ni 16.93663204 17.45019412 11.86157417
Ni 0.45631672 0.67351361 13.82623486
Ni 16.33697932 11.79809815 8.05996504
Ni 12.21472573 14.31342738 14.88583199
Ni 14.52430040 0.17575452 12.67124287
Ni 1.32973937 9.25546764 13.50085868
Ni 15.31868120 10.94143280 14.88147023
Ni 6.01291957 10.85254956 7.53547230
Ni 14.17832885 11.93168813 12.34476219
Ni 5.70911972 1.47984944 17.42842512
Ni 5.33896803 16.89923043 0.50182624
Ni 11.13058914 6.47258373 7.28920420
Ni 17.37956416 16.60190259 1.84686470
Ni 5.26155341 0.72690332 2.41554099
Ni 8.67960080 6.17756825 3.52519007
Ni 10.87232226 8.90592396 11.62367713
Ni 14.11977797 15.86086062 14.93148342
Ni 12.26464768 3.42543417 6.26898128
Ni 13.85917481 14.75509796 4.36700321
Ni 3.84913198 2.71343751 5.31775773
Ni 5.30390304 12.14140783 9.39982559
Ni 2.28127650 6.22590121 11.14682892
Ni 11.03517435 4.48399641 15.19972400
Ni 5.37008560 1.20941953 7.91554963
Ni 2.79952606 8.61270811 2.27453023
Ni 14.48354861 3.82162775 10.56388997
Ni 9.12069171 5.27573307 7.93939603
Ni 12.59358514 13.12657618 17.35351466
Ni 5.33431449 8.98020729 13.71667497
Ni 1.64789672 3.70990450 10.86596956
Ni 3.38007083 10.10202041 3.96408457
Ni 10.08684955 3.44119335 6.17954763
Ni 1.72188851 2.20855459 0.95974587
Ni 13.27249043 4.05623142 8.03231752
Ni 16.48634991 9.45617416 2.05491225
Ni 1.50737923 6.64671205 2.38683308
Ni 5.91617434 4.02472224 9.62678470
Ni 11.22985320 11.74686409 15.69377509
Ni 2.79989821 9.96037829 14.96914438
Ni 4.38954349 7.24977430 11.09208712
Ni 11.85939572 12.45664755 10.15626348
Ni 2.54135820 0.28616662 13.83628802
Ni 7.24955493 7.83583629 13.74534909
Ni 6.34914491 16.74149027 14.00337388
Ni 1.36599149 8.14119305 0.65627960
Ni 4.65340872 16.38304499 10.11355881
Ni 4.79924906 5.46021130 16.52603606
Ni 9.80485428 12.06084010 8.78522514
Ni 16.88475414 0.08147234 16.47706559
Ni 3.43244299 0.52083798 0.86056900
Ni 5.44721784 3.46946837 7.32552552
Ni 6.26906248 13.56745235 3.96854874
Ni 15.73293102 16.63365050 3.85748852
Ni 3.12415913 6.81470751 3.77138914
Ni 6.68070967 7.29764417 10.63884304
Ni 16.33303575 3.30812707 17.44765572
Ni 14.73822719 5.33032249 6.77711238
Ni 1.85319798 9.36311326 8.07119447
Ni 12.31699322 13.88530122 2.79947631
Ni 4.34828786 9.57961829 8.77504389
Ni 14.41378074 7.76437331 8.39605116
Ni 0.62343623 11.37687233 15.21512661
Ni 15.66982641 5.30845677 17.52539619
Ni 2.96382464 7.09091064 6.94695880
Ni 9.33017227 2.91089045 12.83821546
Ni 4.79781596 4.13709596 0.97471376
Ni 13.50923286 6.55290295 10.13766787
Ni 16.50517583 16.29370685 9.30001958
Ni 5.25573731 7.91426214 4.53505539
Ni 1.10854596 1.48387242 7.18710203
Ni 8.19560025 10.07449746 7.89525800
Ni 5.02278365 3.75332738 3.78610341
Ni 0.85660517 5.87547447 15.67066622
Ni 16.83179961 9.21880550 10.64915867
Ni 10.66367687 13.91186134 16.60051513
Ni 0.16785046 5.99906258 11.83615033
Ni 16.23007851 3.46134529 2.03080315
Ni 8.54858193 16.22842151 6.88805353
Ni 2.20587220 13.64844323 16.81157929
Ni 3.25697291 8.23955548 12.57124705
Ni 15.37016340 10.33851176 12.51090480
Ni 10.70375621 13.20347051 7.10158219
Ni 9.76820514 11.04964272 16.96018374
Ni 9.24583062 3.34867372 9.58364678
Ni 7.80069952 15.50371207 17.43637647
Ni 9.07455979 0.06152730 15.85751171
Ni 9.80547252 4.84945534 13.52771505
Ni 5.04277558 3.12322901 15.98407250
Ni 12.65195280 8.41548961 9.79558893
Ni 5.94915645 11.54052843 2.77382235
Ni 13.01801742 16.21889569 2.31665855
Ni 5.55626818 15.93960767 12.20599551
Ni 8.60319559 4.46034231 1.85533019
Ni 2.33504429 2.60841375 14.35057426
Ni 11.05476667 4.87385017 5.26251360
Ni 5.94274044 12.50546895 6.01696201
Ni 2.56235629 11.24047929 8.99021708
Ni 1.83005906 2.80030922 3.43135093
Ni 4.81554844 10.44500311 15.34587977
Ni 3.20335119 0.03172455 9.59538879
Ni 0.46962307 14.06149196 15.29470386
Ni 2.47823542 16.90596228 16.17128901
Ni 4.50612819 1.83377869 14.35201418
Ni 9.86790246 10.88961897 12.59893333
Ni 7.33776493 9.73298896 15.98031460
Ni 5.92032200 6.42596999 12.28110477
Ni 3.55626522 10.58137186 6.78910924
Ni 4.29314316 13.32597065 15.44905439
Ni 11.88317527 10.82055221 0.59895745
Ni 5.36549426 6.77108083 14.81084211
Ni 16.17121945 1.74199926 12.22876070
Ni 5.91961599 9.07162130 11.43946931
Ni 13.68542206 2.90746317 12.37838356
Ni 16.67356193 15.33266309 5.50573181
Ni 7.85813204 10.29804255 1.82601921
Ni 8.88735933 12.91518281 15.79223894
Ni 15.16652515 5.05337551 8.86566827
Ni 2.58772447 13.32294718 8.87565947
Ni 14.85039290 17.40033932 2.02303460
Ni 0.88215022 15.75534823 16.79824595
Ni 0.61140653 13.05386014 13.22345575
Ni 12.85868292 11.76324142 2.36335630
Ni 2.72046183 3.58522753 17.25660331
Ni 12.57663942 16.56491720 8.15962256
Ni 1.97961356 12.53853535 1.24213020
Ni 12.31793830 0.92948572 11.88535102
Ni 10.47973075 17.51453688 7.25845084
Ni 2.42599489 12.37538729 14.47053400
Ni 10.56971452 1.47447840 14.67609605
Ni 8.06606420 0.38468151 8.10337452
Ni 10.82876537 16.65059474 11.31318871
Ni 7.68226166 5.28081393 9.95398455
Ni 6.93726845 1.82750280 9.27055291
Ni 13.25930432 5.75314245 16.92052069
Ni 15.36929846 12.95189755 0.60031989
Ni 4.18563724 0.06437013 6.19695612
Ni 9.09358669 6.44600206 0.04023200
Ni 6.65438132 13.29048562 11.58418991
Ni 8.35417705 16.83506114 11.74613606
Ni 1.12168836 10.68410265 2.99210730
Ni 11.13080723 3.94151022 8.17841557
Ni 0.04183920 15.01521299 10.75115700
Ni 1.09607119 2.57195960 12.73323972
Ni 13.14702188 12.03992062 14.84795660
Ni 4.42276632 14.73149677 5.47596459
Ni 1.75615912 11.69287419 7.09555518
Ni 0.60550251 5.09916298 0.23844333
Ni 7.54370283 3.65833343 11.93719952
Ni 6.26060018 9.62023253 0.43947216
Ni 15.52182559 16.17138871 7.33150538
Ni 6.35829943 16.74369551 8.52487529
Ni 13.30075542 7.43538772 14.65115922
Ni 6.60540577 6.24781494 4.21637494
Ni 10.26839861 4.50728606 11.41152541
Ni 7.28194980 13.48039801 1.73478101
Ni 8.32126010 1.34526325 11.59630015
Ni 9.66492851 16.61750702 4.56971911
Ni 8.02862717 12.54646162 13.33714356
Ni 7.05815007 1.62867994 3.40474099
Ni 16.97073751 6.66080173 1.52934451
Ni 8.46829745 1.32163924 14.04557443
Ni 13.49584474 15.64366478 6.14040907
Ni 4.77442432 14.22860081 9.54028792
Ni 16.22854960 13.19711673 9.76574246
Ni 11.33283587 5.69724131 0.09858696
Ni 0.59020957 13.10511484 8.57962289
Ni 2.47803306 4.89141165 4.11056029
Ni 8.53984385 14.18585098 8.26870035
Ni 6.97110112 7.00417831 6.29572977
Ni 11.79529119 5.96358221 13.40810895
Ni 2.66013357 4.48658193 6.33967181
Ni 4.16890269 5.18988534 10.30050074
Ni 6.37345083 10.30905670 9.77469880
Ni 3.79321832 11.11408497 2.04272935
Ni 5.55665083 8.39983914 16.23669897
Ni 4.69702262 6.09674451 2.72113776
Ni 10.34154166 1.84470143 16.93544472
Ni 17.52162710 4.82523658 13.85881815
Ni 4.62845742 8.73424722 6.62684272
Ni 1.07964954 10.09298427 5.90127968
Ni 8.15728641 8.60951122 0.38515608
Ni 2.96088378 11.48523788 16.45981766
Ni 11.46003405 3.16897659 13.17981719
Ni 9.09059420 5.77185182 15.56384553
Ni 8.06359837 2.06969218 17.46549856
Ni 11.63077164 15.62694059 4.26912949
Ni 7.05849474 7.82098104 2.11519823
Ni 15.94009834 8.24916390 3.91967183
Ni 7.04749844 10.21848737 13.51936230
Ni 11.03213197 6.11568342 9.42371487
Ni 6.40023593 2.85295834 1.66273565
Ni 2.43863879 14.93352116 15.23594566
Ni 9.38380709 1.26893216 4.42981286
Ni 7.53248665 12.11567934 9.38401256
Ni 8.62404477 11.03294890 14.95369129
Ni 12.55833182 12.50893103 7.72312124
Ni 4.71273829 11.99466565 13.76388549
Ni 11.20059042 0.52313531 3.80182249
Ni 7.26544771 3.91962115 3.35837013
Ni 14.43388673 6.49089591 4.15391242
Ni 12.76355553 10.20010782 11.49533060
Ni 8.46960282 3.17482295 15.39386020
Ni 9.97150799 9.84682031 1.19110191
Ni 8.56321651 8.46860731 11.84696015
Ni 14.94417686 6.92360499 16.28514033
Ni 0.83929394 17.02416652 10.46059649
Ni 8.30327466 12.84958580 3.58176517
Ni 16.52426172 8.85282797 16.19680246
Ni 17.01996483 1.04297004 2.53659843
Ni 11.38874103 8.70228476 2.31005678
Ni 13.43962192 4.69637589 5.09059838
Ni 2.13526172 16.15436267 2.80509639
Ni 11.77547614 0.40871151 9.41459757
Ni 11.45545642 6.77601295 11.45865517
Ni 2.88812227 16.04111275 0.63906281
Ni 11.96433308 12.09674046 12.86601228
Ni 11.82587653 1.89360642 7.95364587
Ni 1.26260315 15.97902632 12.62549717
Ni 14.27062442 9.14140113 16.29580754
Ni 11.31855038 12.19754457 3.76316927
Ni 14.72859741 10.78056267 5.10794490
Ni 11.26389326 2.61467231 10.60828784
Ni 9.22933386 11.97403325 1.24881179
Ni 0.66477057 3.34341210 16.03702490
Ni 16.02182978 13.17399063 14.79753911
Ni 7.33514657 17.49938075 1.84874485
Ni 4.34597654 15.34209603 16.89755478
Ni 6.49931652 16.31477938 4.27343433
Ni 16.83535439 6.92205541 17.00611483
Ni 6.66030743 8.43933208 8.27798808
Ni 15.44552862 1.63845198 16.16704906
Ni 11.60739780 8.61864153 13.82145931
Ni 9.23406934 4.08608012 4.01644325
Ni 4.37933355 0.47894048 12.40714524
Ni 6.88532233 15.39316776 10.51329559
Ni 13.79229275 1.39810368 0.70557691
Ni 9.71499988 3.98298173 17.38525227
Ni 16.26957393 6.94721859 9.87729337
Ni 11.69610739 14.33099660 11.38431728
Ni 7.81663691 2.63635692 5.90793478
Ni 3.18118330 1.94091881 7.26280338
Ni 5.34695240 4.17785893 11.96052985
Ni 15.47113010 3.79299080 5.44634397
Ni 12.18897200 4.96227000 2.63146496
Ni 10.16360907 14.39257696 3.31688598
Ni 15.91877421 10.68009663 17.10430158
Ni 8.31543734 15.35953450 2.34359937
Ni 3.16780495 16.15675454 11.75501526
Ni 15.55165610 4.03248953 13.11052195
Ni 3.69946542 9.15910641 17.36724467
Ni 7.76096193 0.35342340 5.60093733
Ni 16.60174169 4.59973786 15.83018889
Ni 9.34703586 7.04204238 5.46788218
Ni 14.43687911 4.46453834 2.92928484
Ni 5.96998600 14.07260861 17.40552894
Ni 7.74812166 3.64459414 8.01806045
Ni 14.07295086 14.04719757 13.48623849
Ni 8.50715070 16.43047154 9.65318241
Ni 16.56153153 6.64885002 5.60924568
Ni 9.31622823 14.87442801 11.50049826
Ni 3.55494898 2.65686331 2.04222379
Ni 10.55761884 9.17988979 4.73646548
Ni 17.05277124 9.65011972 14.31210736
Ni 14.50249669 13.42522931 2.65102231
Ni 0.40767627 16.80493977 3.89701537
Ni 6.71913312 4.28085842 17.11004837
Ni 13.23902043 15.86381312 12.20503841
Ni 7.63129354 10.86177111 4.67639945
Ni 12.59814468 7.07569352 1.77900826
Ni 14.91293896 16.97697655 17.55976800
Ni 11.03222090 12.94159725 1.29900103
Ni 14.62772463 3.72657675 15.76917937
Ni 15.27962882 5.59779389 14.49358550
Ni 15.81683599 13.59562421 4.34539668
Ni 0.24947160 8.30575095 6.53278401
Ni 11.04258669 15.54198497 6.48179836
Ni 13.59313245 8.24599658 5.74758165
Ni 7.72207475 8.61757502 4.18051991
Ni 10.66128376 7.24990551 3.61620748
Ni 7.96984905 12.17439758 6.99226700
Ni 10.71062145 16.06026118 9.00037081
Ni 5.38822986 2.23014185 11.13090026
Ni 12.36233386 10.15607779 4.12259293
Ni 7.97007076 10.86736504 11.56540305
Ni 12.37717668 7.90262936 17.42460308
Ni 14.14404604 14.15447554 10.56734248
Ni 13.70324892 9.68691252 7.73936217
Ni 16.24691879 11.48318223 10.98577455
Ni 11.20416886 0.95936326 1.17811515
Ni 9.64897369 7.07046469 13.28503474
Ni 8.75104404 2.21254305 2.20956062
Ni 9.15968703 13.90853395 0.73074476
Ni 11.04924673 2.85273292 3.88556502
Ni 6.04901818 11.20097928 11.87911355
Ni 6.81797205 6.76897944 17.19604044
Ni 15.56926468 15.96075446 11.84467799
Ni 14.84748796 8.27797272 10.87717239
Ni 1.36469921 1.17596377 15.80836575
Ni 4.39899268 5.84468270 5.76430321
Ni 2.57488633 13.46643464 5.50636227
Ni 8.74564995 8.94165543 6.07486934
Ni 3.39349949 7.52130407 14.68870896
Ni 1.89077319 1.83976121 9.21650701
Ni 3.48310851 14.65551194 3.42952949
Ni 16.48314141 14.18770542 7.76024674
Ni 13.29811972 2.00798511 9.65028157
Ni 1.05961799 14.76607786 4.33907560
Ni 15.22585028 8.41582112 13.99136288
Ni 10.19708374 13.39454010 13.73055329
Ni 10.33687372 16.28137934 16.88319626
Ni 4.44875074 16.81909816 3.87739782
Ni 14.86125328 1.77093998 13.94880788
Ni 12.41643334 6.50223527 5.18091648
Ni 13.19668046 8.25376177 3.50990571
Ni 17.06980149 11.89894487 1.38257321
Ni 2.61607281 4.68371786 1.87296749
Ni 13.40440002 9.42670258 0.94002224
Ni 8.55742140 16.61978513 13.87789805
Ni 10.15459965 13.99374281 9.53732797
Ni 11.10937859 1.66577860 5.61399179
Ni 14.04207575 11.85213394 9.26304196
Ni 4.04985117 3.17474449 9.41165939
Ni 6.57508777 9.15683811 5.89648589
Ni 9.72973780 10.92551801 3.42207796
Ni 6.73604649 14.44541344 15.43912039
Ni 14.34690637 2.25053867 7.31730383
Ni 7.62139021 11.55148429 17.38729899
Ni 3.96166888 9.95395848 11.08971932
Ni 13.11304482 6.16033115 8.20679577
Ni 12.69159505 0.22983673 6.46493679
Ni 9.64762641 1.29428330 9.99277482
Ni 15.16819999 8.27802690 0.67881233
Ni 5.06391842 7.45755416 1.12234554
Ni 16.51468180 2.02966920 5.97095164
Ni 2.15250611 10.22182402 0.69035036
Ni 10.64595846 3.39217008 1.70367628
Ni 14.96410207 17.53735321 5.79386927
Ni 2.35128029 4.54058084 12.89596477
Ni 14.52604275 13.98086348 16.29368039
Ni 13.55998534 12.44768385 4.36089771
Ni 15.46699589 6.81541080 12.62960236
Ni 2.73568928 16.14217390 5.14423928
Ni 13.56027866 0.52364813 16.05234099
Ni 5.07151453 13.03315478 1.45810787
Ni 13.42886617 9.92595677 13.92536281
Ni 14.52067266 9.89477470 3.08413246
Ni 6.67612504 17.46433328 16.41684246
Ni 3.33038495 13.98513492 1.10607695
Ni 8.98593594 0.21303226 0.23860890
Ni 9.04604589 7.04965667 10.41324343
Ni 15.97266484 15.34832145 0.79242520
Ni 4.12014669 16.13998969 14.20781794
Ni 9.10568933 8.33241121 2.64564119
Ni 15.67051354 9.12510505 6.86770501
Ni 3.39638037 12.24467782 10.88016618
Ni 16.93701134 9.95545845 4.62127345
Ni 16.75599726 4.29754549 7.19317450
Ni 14.48504133 17.37774491 8.69852472
Ni 1.17906505 6.79400570 13.67863500
Ni 16.46413922 6.42093684 7.79198490
Ni 11.54368412 10.57266290 9.26050773
Ni 11.65348457 17.56827545 15.73528435
Ni 15.45492317 2.16611819 9.39595611
Ni 4.55808320 13.85936760 11.83520663
Ni 6.42693823 3.40791107 14.29630069
Ni 13.16703212 4.66232718 14.54547699
Ni 14.97333857 10.87380858 1.20974898
Ni 0.12378752 11.08053291 12.38131378
Ni 14.17913857 14.12328136 8.37747552
Ni 13.56479000 11.34402200 16.80101546
Ni 7.48534231 14.28641907 6.41018936
Ni 0.60568234 16.23583011 14.73382057
Ni 5.19425617 6.68586114 8.99548296
Ni 16.37789317 12.27165523 5.88091923
Ni 9.14497577 1.92245532 7.59650608
Ni 13.16113290 8.20743296 12.40408261
Ni 2.79665152 5.04296726 15.35023817
Ni 16.08833458 17.19898542 14.39951281
Ni 0.51783527 13.05643565 3.04875017
Ni 8.25362995 5.68007888 12.37747477
Ni 10.48342836 8.35761733 8.94207822
Ni 9.63716409 13.36708825 5.23105302
Ni 4.66069239 17.26325997 16.03400855
Ni 6.32982158 14.05706915 8.35298826
Ni 17.35830108 2.84848868 3.74581439
Ni 10.33150116 0.78365047 12.63701490
Ni 16.89128715 7.01131021 14.73224796
Ni 2.54697377 11.07397420 12.76742465
Ni 8.26879642 14.98760870 4.43068698
Ni 14.38718148 11.64609715 7.09073513
Ni 14.79560087 2.15037158 3.51664910
Ni 2.09406409 0.38493358 11.52599184
Ni 9.19036687 14.95898465 15.28894437
Ni 9.89847376 8.98951009 15.76728702
Ni 4.46332531 12.85871696 7.46870159
Ni 12.09825897 9.69316456 15.85005143
Ni 2.50710205 16.98085715 7.50388306
Ni 13.42875832 17.55263137 4.04192590
Ni 12.64053571 17.27078949 0.43876215
Ni 1.14659942 12.30487255 10.88285798
Ni 3.72463099 1.67093746 16.51758078
Ni 6.74430538 5.36258187 1.53306872
Ni 6.14213836 16.29769504 6.47838777
Ni 5.11958163 11.40822332 17.46109473
Ni 17.55816080 2.76462042 8.66415890
Ni 12.04325911 13.50760026 5.33372923
Ni 9.93071892 11.12397364 6.68685369
Ni 1.38059208 8.15748793 15.64828481
Ni 16.51148275 15.30596643 13.53878303
Ni 0.53938515 4.63693273 2.87790136
Ni 16.71003559 1.40799292 0.52644739
Ni 9.69749473 12.56414561 10.97090720
Ni 17.31399772 17.39523446 6.06196846
Ni 0.37950317 4.68551126 5.34235986
Ni 13.76542105 14.73954990 0.79802472
Ni 1.35936212 8.32225616 11.40085975
Ni 0.66126784 16.11852791 8.11226015
Ni 5.69487161 1.60417764 5.41465083
Ni 10.32228427 8.16513605 0.32378840
Ni 0.32312935 13.65006844 6.36688708
Ni 0.58326061 7.67379219 9.27420897
Ni 10.87625814 15.12480532 1.29253101
Ni 12.65106394 2.56246598 14.98103092
Ni 16.20977912 13.80796611 12.25386003
Ni 8.13329761 7.70005160 15.77105241
Ni 12.77515345 1.98533640 2.32565183
Ni 12.29953290 10.69624848 6.38604305
Ni 0.25336503 1.59018907 10.67753948
