500
Final configuration Lattice="24.75000000 0 0  0 24.75000000 0  0 0 24.75000000" Properties=species:S:1:pos:R:3
Pb 0.06732756 0.01693492 0.03816200
Pb 0.06351016 2.54874961 2.38060275
Pb 2.38497364 0.10271356 2.44444226
Pb 2.50784723 2.47765595 0.20341484
Pb 0.10160237 24.68371256 5.01032233
Pb 0.11097960 2.29250177 7.66526428
Pb 2.44410095 24.54942461 7.35570980
Pb 2.45137375 2.51618801 4.90528574
Pb 24.64877379 24.67027647 10.12237027
Pb 0.13281422 2.54178146 12.53529958
Pb 2.43256041 0.00770313 12.29615050
Pb 2.43426386 2.45242188 9.99051080
Pb 24.69828040 0.03684213 14.84429099
Pb 24.72906024 2.54015908 17.47184541
Pb 2.29676075 24.66560494 17.40104495
Pb 2.61060143 2.56393353 14.81861680
Pb 24.74207501 24.70994904 19.81451336
Pb 24.69537154 2.55831899 22.38320758
Pb 2.53440645 0.10721067 22.40295567
Pb 2.34768426 2.52184983 19.94152224
Pb 0.17285911 4.82794297 0.05471911
Pb 24.74875878 7.36964805 2.19477181
Pb 2.33277744 5.06650108 2.54836659
Pb 2.50438453 7.48872148 24.61737577
Pb 0.08599979 4.88496642 5.10395797
Pb 24.64142625 7.50598730 7.37382735
Pb 2.37929423 5.19905323 7.30758460
Pb 2.20265795 7.59039507 4.79101430
Pb 0.12233662 4.99514269 9.81608884
Pb 0.14240344 7.44802925 12.42400333
Pb 2.45907957 5.02398005 12.46084437
Pb 2.39761690 7.67130094 9.83680452
Pb 0.09668006 4.81452400 15.09529082
Pb 0.20019309 7.39063556 17.43366940
Pb 2.53872154 4.88069351 17.49892866
Pb 2.51826472 7.34955830 14.90989560
Pb 24.69612124 4.95001772 19.96147188
Pb 0.00124122 7.33745064 22.31991013
Pb 2.54486380 4.95693272 22.40264464
Pb 2.54565758 7.41167862 19.88140000
Pb 24.69060251 9.96908162 24.56858980
Pb 0.08531548 12.36891056 2.26852850
Pb 2.40685502 9.97768724 2.33903266
Pb 2.45354641 12.49691891 24.57499510
Pb 24.63981442 10.05027372 4.95650675
Pb 0.00972555 12.50837331 7.32882644
Pb 2.35641894 10.04399884 7.30172565
Pb 2.53656890 12.48592589 4.91968987
Pb 0.06434623 10.07649344 9.74838305
Pb 0.02191192 12.45942165 12.33155807
Pb 2.32841358 10.00960259 12.48881388
Pb 2.55968556 12.38877877 9.83888851
Pb 0.14617790 9.84103127 14.89288425
Pb 24.71731027 12.25652995 17.40018428
Pb 2.53437799 9.94466486 17.40530150
Pb 2.46145926 12.41538346 14.73249772
Pb 0.06172530 9.77267292 19.77254622
Pb 0.00998438 12.37675596 22.27343220
Pb 2.45450736 9.85285251 22.26406905
Pb 2.60475034 12.24250794 19.89832665
Pb 24.52958342 14.92618235 24.51961876
Pb 24.62076712 17.38667018 2.45655269
Pb 2.32352182 14.84310743 2.26937244
Pb 2.45680472 17.16544383 24.50172200
Pb 24.72547164 14.87610012 4.67842741
Pb 24.61721736 17.38970744 7.54462547
Pb 2.44856148 15.07408453 7.41028160
Pb 2.49993655 17.36210684 5.02991718
Pb 24.67703051 14.93587517 9.82832459
Pb 24.74755255 17.36182258 12.37354727
Pb 2.41131614 15.02792423 12.33698761
Pb 2.33511030 17.44892964 10.05413417
Pb 24.66159317 14.72447947 14.72958847
Pb 24.70548713 17.37830475 17.16179680
Pb 2.24289425 14.87454924 17.33470195
Pb 2.61413729 17.35492627 14.77221156
Pb 0.00763284 14.74685901 20.04232409
Pb 24.74616639 17.45113472 22.22285587
Pb 2.63927315 14.90641223 22.13963447
Pb 2.43167406 17.22737645 19.77898806
Pb 24.63505100 19.70511186 0.10792411
Pb 0.07547954 22.20895622 2.54825382
Pb 2.46271041 19.66628698 2.31947165
Pb 2.54983470 22.41713768 0.02760639
Pb 24.67284460 19.62544258 5.08627921
Pb 24.60250739 22.25559866 7.62241472
Pb 2.41523055 19.76252941 7.54284771
Pb 2.56221657 22.12062629 4.83156427
Pb 24.63689375 19.96455051 10.00547719
Pb 24.66825552 22.19885361 12.40595841
Pb 2.40049939 19.78780645 12.45800218
Pb 2.41612675 22.33761804 9.89852580
Pb 0.09266961 19.90880877 14.88752766
Pb 24.68564859 22.27397426 17.51376927
Pb 2.41171378 19.94567071 17.46816677
Pb 2.48526740 22.36532274 14.96407810
Pb 0.27743325 19.81871372 19.95902143
Pb 0.11072630 22.31121619 22.50410569
Pb 2.55644252 19.80697122 22.41846814
Pb 2.38650613 22.33494229 19.99036284
Pb 5.02413234 0.07386770 0.04798209
Pb 4.92287663 2.49890870 2.59430223
Pb 7.50497650 0.12240045 2.61058238
Pb 7.55946893 2.61253780 0.15047482
Pb 4.88342888 0.09013771 4.86386323
Pb 4.82339058 2.53705135 7.38648615
Pb 7.52936903 24.62788269 7.41631462
Pb 7.38312241 2.47446662 5.05523292
Pb 4.95148578 0.04005438 9.79665953
Pb 5.03053987 2.24412889 12.34218649
Pb 7.45857529 24.72690903 12.41215403
Pb 7.48735957 2.30710101 9.95106676
Pb 4.99090827 24.73972762 14.87393865
Pb 4.89099246 2.36378109 17.39910219
Pb 7.26452831 24.57008128 17.20840674
Pb 7.58499465 2.36496064 14.69972161
Pb 4.88204200 0.16437137 19.89315644
Pb 4.93413805 2.44706174 22.49715782
Pb 7.49080212 0.13760421 22.38792789
Pb 7.34029343 2.70428900 19.97846036
Pb 4.87268443 5.02719474 0.35010751
Pb 5.12639854 7.53567101 2.49589282
Pb 7.41307997 5.01967475 2.73173242
Pb 7.56308702 7.49876333 24.63352120
Pb 4.73936737 5.11569667 4.90166209
Pb 5.05335233 7.35839013 7.42794715
Pb 7.26637785 4.98967760 7.24269651
Pb 7.54073753 7.52640149 4.99053889
Pb 4.62290672 4.92466280 9.91952880
Pb 4.96495783 7.49539441 12.38961635
Pb 7.15645178 4.85126861 12.29201295
Pb 7.47968668 7.33948772 9.85991394
Pb 5.06543674 4.71037900 14.88926877
Pb 4.88559745 7.37713036 17.21053616
Pb 7.20926905 4.86241825 17.44338759
Pb 7.22936935 7.26085661 14.93946440
Pb 4.84750312 5.01508351 19.84040341
Pb 4.97002638 7.43588942 22.35963332
Pb 7.39054779 5.18513208 22.45829335
Pb 7.57084563 7.29357240 19.77307054
Pb 4.92648964 10.02123158 24.65925546
Pb 4.99797321 12.37530397 2.51265308
Pb 7.42562070 9.97177549 2.33827231
Pb 7.37954448 12.55013198 0.19035863
Pb 4.87477033 9.87532417 4.93662916
Pb 4.94046316 12.25367908 7.39607514
Pb 7.40020887 9.94865320 7.27853945
Pb 7.39551538 12.56776875 4.94435712
Pb 4.95458930 9.84061417 9.80954504
Pb 4.91905563 12.40546830 12.29637560
Pb 7.30388601 9.77115022 12.33624595
Pb 7.48396874 12.42918373 9.98773377
Pb 4.92153625 9.87637113 14.94351519
Pb 4.92403689 12.17322918 17.32678264
Pb 7.36512656 9.74828488 17.31184564
Pb 7.18475989 12.27078254 14.76819136
Pb 4.97380346 9.84277192 19.85468195
Pb 4.98540867 12.24859867 22.09494078
Pb 7.56122284 10.11099820 22.21822425
Pb 7.38712674 12.35630769 19.91925353
Pb 5.10612538 14.91261002 0.07612303
Pb 5.02580400 17.31885183 2.42230471
Pb 7.47337053 14.97526023 2.52112911
Pb 7.59719851 17.30449485 24.66426963
Pb 5.13245529 15.10842426 5.05697868
Pb 4.94684969 17.38603595 7.52559524
Pb 7.36787075 14.83523174 7.63701860
Pb 7.46090430 17.39391784 5.09697369
Pb 4.92566290 15.00337055 9.95019266
Pb 5.02508068 17.36398374 12.34713810
Pb 7.38461513 14.77720987 12.43686772
Pb 7.49334776 17.32916569 9.94164054
Pb 5.01876708 14.76026520 14.75459844
Pb 4.89612874 17.25709569 17.10691608
Pb 7.46003721 14.63233882 17.37165277
Pb 7.39191277 17.05477204 14.91296140
Pb 4.98304758 14.83100386 19.77917518
Pb 5.14121929 17.36631697 22.30744566
Pb 7.60355415 14.89068135 22.24979052
Pb 7.43564437 17.26567440 19.59630925
Pb 5.18915865 19.79737272 0.02649420
Pb 5.01424938 22.35011639 2.43120981
Pb 7.40393622 19.77919821 2.57706396
Pb 7.38805905 22.44998384 0.02349744
Pb 4.90676992 19.68843112 4.89935360
Pb 4.95579992 22.24433934 7.40362256
Pb 7.47430440 19.87664493 7.54549042
Pb 7.30074111 22.35191371 4.95990786
Pb 5.00704076 19.71294556 9.95931124
Pb 4.94945482 22.35607768 12.48220615
Pb 7.36459619 19.71025430 12.50439474
Pb 7.28810353 22.26282185 10.04001313
Pb 5.06348546 19.96403129 14.96590356
Pb 4.96517323 22.23838007 17.43424475
Pb 7.38713917 19.84360162 17.33222305
Pb 7.33155869 22.17595873 14.84991957
Pb 4.91603081 19.67843690 19.70717915
Pb 4.94901702 22.27573331 22.25126342
Pb 7.52369660 19.74900102 22.18449123
Pb 7.28499587 22.34000458 19.84718194
Pb 10.00308931 24.57459674 0.01706653
Pb 9.87131697 2.48353688 2.66771909
Pb 12.24883637 0.12802921 2.51852496
Pb 12.36461732 2.42274917 24.73858004
Pb 9.86007500 24.60687291 4.93494129
Pb 9.84347331 2.32782151 7.44853879
Pb 12.37810332 24.70803239 7.26775159
Pb 12.43035281 2.30282830 5.03262188
Pb 9.87621522 0.09177006 9.91109923
Pb 9.82259263 2.43701099 12.34026192
Pb 12.38772207 0.01357547 12.35279664
Pb 12.66809168 2.55077151 9.79531632
Pb 9.77988531 24.65529467 14.98844596
Pb 9.77609150 2.58460944 17.29770028
Pb 12.20538911 24.50028481 17.39889618
Pb 12.12746327 2.47760647 14.76921955
Pb 9.72662392 24.71361442 19.78877576
Pb 9.94680910 2.35913080 22.12560738
Pb 12.38835563 24.65063677 22.38045268
Pb 12.40680416 2.24216361 19.66166261
Pb 9.92111941 4.72527169 0.01036272
Pb 9.92484960 7.37178237 2.56566494
Pb 12.39842075 4.84991265 2.60956054
Pb 12.39434841 7.27309188 24.64941608
Pb 9.87034778 4.89580671 5.04408967
Pb 9.80326276 7.55463973 7.30816126
Pb 12.31563779 4.99030546 7.39339305
Pb 12.45873862 7.48878490 4.98198330
Pb 9.67327955 4.92937667 9.69881571
Pb 9.78121306 7.23930262 12.24155921
Pb 12.23026243 4.89571681 12.16833550
Pb 12.36903304 7.45156746 9.88217045
Pb 9.72270683 4.96099235 14.71271321
Pb 9.76428419 7.20028615 17.19694970
Pb 12.27347212 4.76408930 17.29218512
Pb 12.41211926 7.22023047 14.95893830
Pb 10.02829399 5.02818171 19.63000008
Pb 9.92488363 7.50855213 22.14159679
Pb 12.22141219 4.85550335 22.18596166
Pb 12.34206174 7.27410951 19.54160802
Pb 9.99824398 10.03749150 0.16308862
Pb 9.86506982 12.27692166 2.58465702
Pb 12.29368132 10.05671351 2.44842938
Pb 12.41575777 12.56455815 0.10041935
Pb 10.14750562 9.95843142 4.98370233
Pb 10.16507076 12.31684752 7.51230187
Pb 12.47508989 9.80053057 7.48541298
Pb 12.51701531 12.41703846 5.03908733
Pb 9.99376741 9.94212090 9.89731237
Pb 9.60076470 12.08070904 12.52744320
Pb 12.37945235 9.88082458 12.56053790
Pb 12.33038354 12.47417439 10.24580716
Pb 9.79470638 9.59913954 14.75981087
Pb 9.79866033 12.16627445 17.19967164
Pb 12.37448627 9.67951199 17.08570048
Pb 12.40377925 12.21963893 14.92056511
Pb 10.11832330 9.85770660 19.67388454
Pb 10.09456087 12.44047523 22.38942437
Pb 12.47195110 9.86980230 22.21770820
Pb 12.48075020 12.32400399 19.78059017
Pb 9.91641359 14.86193487 0.19988859
Pb 9.91967816 17.36860773 2.47156788
Pb 12.37360481 14.90942932 2.60345714
Pb 12.56615530 17.26759620 0.07909322
Pb 9.92906284 14.71642197 5.13272135
Pb 10.11849672 17.40883707 7.52048051
Pb 12.40322156 14.87921856 7.40338047
Pb 12.58571662 17.37390898 4.94822042
Pb 10.00434436 14.89538618 9.92071334
Pb 9.91771287 17.37674407 12.24673086
Pb 12.48323999 15.09300783 12.42729306
Pb 12.58884817 17.54785908 10.05740010
Pb 9.78910609 14.74876830 14.86266398
Pb 10.01963836 17.18523132 17.26599209
Pb 12.20933471 14.77400749 17.16778932
Pb 12.52688984 17.38089495 14.86356597
Pb 10.03635867 14.60652537 19.67619239
Pb 10.17109478 17.27055056 22.35090737
Pb 12.55497113 14.77891752 22.25210465
Pb 12.31949352 17.20051788 19.73405337
Pb 9.95844505 19.89489874 24.67383595
Pb 9.84685585 22.27220656 2.54387763
Pb 12.50732309 19.73163269 2.37519939
Pb 12.38194366 22.24881297 0.02548871
Pb 10.03622461 19.90289563 4.86624111
Pb 9.86451957 22.38326935 7.60676745
Pb 12.51256249 20.00798279 7.44214163
Pb 12.33102255 22.32356259 5.01236043
Pb 9.92474780 19.89908527 10.02322689
Pb 9.85475813 22.23728372 12.49353202
Pb 12.31207005 19.75255729 12.49449008
Pb 12.25471110 22.32943407 9.95296130
Pb 9.78850897 19.71549623 14.94781984
Pb 9.69431735 22.09231984 17.37512308
Pb 12.38264172 19.76459638 17.30428972
Pb 12.40639412 22.14023350 14.86386363
Pb 10.01120482 19.67553858 19.68715996
Pb 9.83320182 22.26162826 22.32256651
Pb 12.17709138 19.94417785 22.34658294
Pb 12.18186374 22.31614530 19.91109139
Pb 14.87567251 0.06143966 0.02381363
Pb 14.64011481 2.45000668 2.54036282
Pb 17.42664659 24.69791020 2.47649366
Pb 17.26522048 2.46262490 0.15331475
Pb 14.78019657 24.66154326 4.85250440
Pb 14.98946987 2.27505308 7.37618686
Pb 17.34700714 24.59154371 7.24411028
Pb 17.31833176 2.44847464 4.91892534
Pb 15.01715657 0.12332312 9.84375868
Pb 14.83890095 2.34307499 12.32469056
Pb 17.41426685 24.67837094 12.47685427
Pb 17.43691189 2.38445155 9.80280952
Pb 14.69179125 24.62927016 14.85275847
Pb 14.86354246 2.31300009 17.26866810
Pb 17.26339993 24.68331547 17.40565109
Pb 17.31937336 2.29010942 14.83087345
Pb 14.79324421 24.64246554 19.85332959
Pb 14.82003464 2.53308769 22.38630649
Pb 17.33191527 24.74229687 22.22185889
Pb 17.31716020 2.52653058 19.85219985
Pb 14.69130448 4.88581173 0.07726288
Pb 14.84383145 7.38473944 2.56614201
Pb 17.24146291 4.89873814 2.60679925
Pb 17.24778878 7.29266964 24.66663376
Pb 14.79434730 4.95003013 5.12796241
Pb 15.07425423 7.57584979 7.50305459
Pb 17.54749146 5.01154007 7.41614794
Pb 17.27382045 7.39169837 4.96312233
Pb 14.92196334 5.02520424 9.92065567
Pb 14.68346364 7.34012007 12.35934248
Pb 17.22412356 4.85085038 12.48239111
Pb 17.37559579 7.44680475 9.80320822
Pb 14.68542093 4.92595992 14.79200783
Pb 14.86755356 7.16902585 17.47750408
Pb 17.20120315 4.85057101 17.33855738
Pb 17.36429118 7.24027305 14.86336181
Pb 14.66907479 4.73137882 19.88415397
Pb 14.73962834 7.28552830 22.17982849
Pb 17.37670202 4.94017409 22.35127326
Pb 17.32864486 7.24991209 19.81765814
Pb 14.79955144 9.78386977 0.04690340
Pb 14.74237116 12.44450980 2.43010805
Pb 17.23950129 9.93906994 2.39814945
Pb 17.14363973 12.26440158 24.68670979
Pb 14.85102211 9.90016787 5.03948113
Pb 14.81176681 12.52924225 7.32853630
Pb 17.32037864 10.09097301 7.38944805
Pb 17.22592126 12.35198217 4.93708317
Pb 14.72812810 9.98561270 9.83008672
Pb 14.91969965 12.28262388 12.54416114
Pb 17.28800785 9.84367291 12.33212811
Pb 17.34182878 12.26086723 9.93570165
Pb 14.97090726 9.81758990 14.87099899
Pb 14.84160897 12.40198162 17.21738187
Pb 17.46539891 9.77624688 17.40077048
Pb 17.38774269 12.32891549 15.09925404
Pb 14.80606843 9.92032887 19.63630014
Pb 14.86745651 12.28723298 22.20046688
Pb 17.42757147 9.80305893 22.32355193
Pb 17.37600496 12.39690448 19.81492114
Pb 14.97819835 14.81751105 24.69100092
Pb 15.00035278 17.29897327 2.48248586
Pb 17.40862323 14.84018489 2.27111513
Pb 17.44480871 17.38952533 24.51744150
Pb 14.94387696 14.81447796 4.89260639
Pb 14.81090001 17.50623675 7.56208266
Pb 17.33874430 14.83261550 7.53568351
Pb 17.24783738 17.16924261 4.99222486
Pb 14.93855485 14.87391599 9.77245444
Pb 15.11883363 17.41377468 12.62579603
Pb 17.36795407 14.82101115 12.41798267
Pb 17.29526954 17.47436716 9.88850540
Pb 14.85354884 14.82794549 15.00562533
Pb 15.00046983 17.39357571 17.25976703
Pb 17.33146449 14.71379384 17.37272283
Pb 17.44970434 17.33191797 14.97700425
Pb 14.80019126 14.81198716 19.67327336
Pb 14.80884626 17.29198702 22.11772242
Pb 17.39542315 14.79440854 22.34774608
Pb 17.26370618 17.27940675 19.70374927
Pb 15.02953853 19.66635327 0.08401263
Pb 14.73943133 22.28028818 2.35861931
Pb 17.26509409 19.89109786 2.51282804
Pb 17.30347054 22.35916104 0.05824625
Pb 14.85057222 19.78914318 4.84414980
Pb 14.84109836 22.36896240 7.44799265
Pb 17.21057936 19.90759747 7.26984244
Pb 17.18779387 22.19659727 4.68427716
Pb 15.03172193 20.08479308 10.02846833
Pb 14.88287072 22.48630761 12.36078509
Pb 17.18673338 19.92330746 12.53757349
Pb 17.40601919 22.34456810 9.83601888
Pb 14.81144314 19.85533310 15.09490177
Pb 14.76850202 22.33063620 17.41594149
Pb 17.24140158 19.82531467 17.42941202
Pb 17.26142987 22.21030957 14.97342496
Pb 14.59761800 19.69145915 19.68931479
Pb 14.88974397 22.30164813 22.48560564
Pb 17.38710127 19.92213402 22.21809931
Pb 17.18546788 22.22058726 19.90890304
Pb 19.81700145 0.13081382 24.57839716
Pb 19.72962500 2.38667527 2.46421241
Pb 22.39564354 0.11774297 2.56176245
Pb 22.15826005 2.45307880 0.07924863
Pb 19.73629965 24.60738989 4.86251286
Pb 19.81700880 2.44499612 7.38279900
Pb 22.24604166 24.63850899 7.50498711
Pb 22.32278141 2.44858481 5.03303897
Pb 19.69401692 24.61022297 9.86407570
Pb 19.86555380 2.48777368 12.38643108
Pb 22.19955847 24.68664699 12.38635715
Pb 22.40729673 2.43748389 10.00772081
Pb 19.87119256 0.06997260 14.98366853
Pb 19.80052047 2.62618519 17.48264036
Pb 22.32054591 24.56968307 17.28479278
Pb 22.42958393 2.50374328 14.94748236
Pb 19.82500869 24.71609570 19.92907715
Pb 19.65623117 2.55172454 22.10415583
Pb 22.31787723 0.04979200 22.26465135
Pb 22.28144246 2.50338373 19.77797230
Pb 19.73170316 4.80949800 0.12893220
Pb 19.59204740 7.53209012 2.48786706
Pb 22.40281192 4.96469927 2.43219020
Pb 22.08011205 7.32085598 24.67873517
Pb 19.82679891 4.97522374 4.90434280
Pb 19.95869298 7.59853189 7.48786574
Pb 22.29677439 4.74294162 7.39210425
Pb 22.22799300 7.46719470 4.92735933
Pb 19.77254486 4.89478152 9.90685735
Pb 19.74526454 7.39583954 12.17067692
Pb 22.34710659 4.92442807 12.39014265
Pb 22.43926222 7.44767203 9.89794407
Pb 19.84213230 4.92436084 14.83368413
Pb 19.86908571 7.32495097 17.32211715
Pb 22.38388844 5.02553974 17.36682437
Pb 22.44995352 7.23162240 14.78055385
Pb 19.94176413 5.11731796 19.73246404
Pb 19.87678552 7.25331176 22.28065145
Pb 22.36546770 5.04427095 22.33386594
Pb 22.42040222 7.47180763 19.77677334
Pb 19.66313108 9.95743221 24.73167244
Pb 19.76274307 12.26812829 2.40124526
Pb 22.34713059 9.93078533 2.22266708
Pb 22.19821195 12.40186928 24.63195183
Pb 19.88394512 10.04258813 4.91870449
Pb 19.89217459 12.45747936 7.42231749
Pb 22.37028844 10.05416553 7.50469458
Pb 22.20572020 12.52963254 4.85634908
Pb 19.83158642 9.90437353 9.85900941
Pb 19.71418693 12.36019107 12.47476225
Pb 22.12984532 9.86592849 12.28232407
Pb 22.34826501 12.39239020 10.01338332
Pb 19.83404173 9.92489177 14.85308882
Pb 19.84240755 12.21498877 17.44576792
Pb 22.31474320 9.93742946 17.31089888
Pb 22.16275759 12.27956568 14.94153819
Pb 19.63843046 9.91969482 19.90530913
Pb 19.84876423 12.42840354 22.28217833
Pb 22.14053934 9.80702576 22.11709025
Pb 22.32155295 12.37327406 19.79674334
Pb 19.87146430 14.84073562 24.73963728
Pb 19.62140297 17.45031926 2.48430010
Pb 22.36008643 14.86115890 2.34455787
Pb 22.12944523 17.31153806 0.16367262
Pb 19.70041138 14.84665502 4.79138343
Pb 19.71897371 17.20492238 7.37238208
Pb 22.25601329 14.90419595 7.40404642
Pb 22.11883751 17.27949399 4.91492565
Pb 19.70158199 14.73034794 9.85082726
Pb 19.65584983 17.33627720 12.40527896
Pb 22.17714103 14.89704192 12.29645085
Pb 22.14055459 17.40812372 9.84746077
Pb 19.85641282 14.85061085 14.96546547
Pb 19.91835074 17.39206001 17.46325340
Pb 22.49524152 14.79901271 17.35716558
Pb 22.21620349 17.27448644 14.77423265
Pb 19.83849113 14.74660695 19.77289841
Pb 19.93097907 17.36449553 22.19086129
Pb 22.11074001 14.83804739 22.17317903
Pb 22.34243322 17.31388932 19.75670276
Pb 19.84337115 19.95279332 24.67510877
Pb 19.88415102 22.31855932 2.34446401
Pb 22.18637230 19.77794865 2.60641326
Pb 22.51552423 22.34579474 24.73630320
Pb 19.65522155 19.90662506 4.88604059
Pb 20.01010109 22.26667325 7.26595913
Pb 22.16936370 19.82154814 7.46352678
Pb 22.35454685 22.35661813 4.91163580
Pb 19.59125984 19.77733075 9.92141452
Pb 19.72258626 22.22788120 12.55351151
Pb 22.23325317 19.71403349 12.53483948
Pb 22.28497944 22.31049987 10.08737261
Pb 19.85760014 19.79343687 14.94529396
Pb 19.71719007 22.25027547 17.44458184
Pb 22.55045141 19.88955788 17.32724677
Pb 22.20161871 22.20869675 14.81811864
Pb 19.89958591 19.85363399 19.89853596
Pb 19.83182505 22.22017052 22.44147965
Pb 22.36599085 19.92124289 22.25384148
Pb 22.22503624 22.25531456 19.70877437
