500
Final configuration Lattice="17.60000000 0 0  0 17.60000000 0  0 0 17.60000000" Properties=species:S:1:pos:R:3
Ni 14.33350717 12.96919154 9.13649023
Ni 14.68329035 10.39314814 10.21706899
Ni 2.39948792 6.66087257 5.11524385
Ni 14.90843139 9.44323361 7.83560433
Ni 0.57818599 13.78184950 6.57373339
Ni 7.77433034 0.36526471 12.03426152
Ni 5.96451077 12.54432568 3.18851499
Ni 16.61643111 15.30314197 5.70029011
Ni 12.43659922 11.96700013 15.99323157
Ni 17.33272241 0.98489397 5.45992863
Ni 13.65588029 1.48060945 12.40862664
Ni 5.79522270 2.39924145 7.61656357
Ni 0.64233915 7.53892333 17.29988013
Ni 0.50164405 14.55840005 8.54248359
Ni 11.13166676 15.22589422 7.50524713
Ni 0.10385852 16.86843902 4.25323676
Ni 8.91829607 12.68677048 12.49228547
Ni 2.45973868 5.25053445 7.10880094
Ni 11.60861244 0.88251302 0.95383019
Ni 15.80164627 11.71197687 0.94262044
Ni 13.68266009 5.53811873 4.74732849
Ni 2.88171449 16.76417606 9.00987251
Ni 0.82912232 5.71246105 3.41743184
Ni 16.70892638 4.38152012 10.29422627
Ni 3.95610054 5.74801600 12.22976049
Ni 1.37665867 3.82624650 2.41087634
Ni 6.36372153 7.00089284 6.79908066
Ni 2.61514142 15.17145059 7.35429286
Ni 1.56936770 7.74557739 7.49345713
Ni 13.34797864 17.42745532 4.32586276
Ni 2.25638551 12.07876187 6.11756803
Ni 8.22326264 7.39978829 14.39357328
Ni 1.64699693 1.21980442 8.35910367
Ni 16.40681285 10.90317710 15.89901787
Ni 1.14497017 17.12714884 11.38409570
Ni 0.83826804 10.03708346 0.05275624
Ni 9.09075586 14.76572985 16.42451903
Ni 13.68014357 4.56371037 8.99563704
Ni 5.45208755 2.35840119 10.02745441
Ni 11.07456072 12.82389959 13.83693006
Ni 1.32805620 7.80869014 1.80701528
Ni 13.21026349 1.46268683 8.01582337
Ni 10.49264741 3.49043697 11.85150980
Ni 3.70103979 10.67785168 17.40619249
Ni 4.73051963 3.74821126 14.26917571
Ni 0.87443008 16.71854639 15.62483311
Ni 14.83308967 14.81013559 12.10563957
Ni 16.57775994 10.29989760 11.52246184
Ni 4.71183699 14.56407847 4.28162568
Ni 14.00345798 9.72497184 3.46788963
Ni 14.67697290 10.44288724 13.00762057
Ni 4.53899595 6.76518422 10.63162232
Ni 0.07510978 11.38623524 6.77273006
Ni 14.95939396 6.08894231 12.75479590
Ni 13.75449043 5.06274001 14.40067055
Ni 12.73206655 6.59018262 16.08707494
Ni 0.28105895 5.45489540 7.78631153
Ni 14.52429335 3.85594071 12.68273147
Ni 2.76654220 2.29784382 3.69118888
Ni 3.69765270 16.08324670 11.47256650
Ni 12.79313197 3.19405028 11.59441966
Ni 5.92595928 10.81359362 4.96162420
Ni 4.47829923 6.71940532 17.24404940
Ni 2.24106907 13.23051076 8.02446776
Ni 0.06233143 11.44589901 1.80550936
Ni 3.71866836 16.00291543 5.48983303
Ni 5.66767353 15.77648113 6.27026103
Ni 3.03263385 15.13882043 1.47651372
Ni 13.76601489 1.72009905 1.88623683
Ni 9.13416716 17.25410036 4.77697590
Ni 14.66558486 2.80788352 16.41344910
Ni 4.77687789 0.09805176 10.29489500
Ni 1.63264528 1.37296479 13.19532412
Ni 15.51287030 14.08091519 14.07208369
Ni 2.81823966 17.56080111 6.84757009
Ni 10.90938686 13.48135202 16.93289721
Ni 3.27326915 8.91213703 8.71633855
Ni 13.22396492 5.46793124 0.43423860
Ni 3.73625810 10.53841474 5.01395432
Ni 0.80030020 17.07041446 7.09233718
Ni 14.24186660 0.48154006 17.58276170
Ni 10.30982459 15.82382609 2.74058939
Ni 8.38189728 13.47915172 2.71025338
Ni 5.48362653 11.18938119 15.32757082
Ni 17.05026307 17.10819980 0.02474497
Ni 0.53807095 5.15405159 0.72463555
Ni 13.41443848 14.61972842 10.21056913
Ni 12.96612890 17.04599779 1.85249286
Ni 7.01684948 16.33417456 13.99478995
Ni 12.36041715 9.86421174 15.41865148
Ni 11.34651854 3.90465292 13.59288198
Ni 7.98703136 15.65800424 0.75370189
Ni 16.63785277 4.55527521 2.45150455
Ni 14.94750189 1.01487125 6.11325733
Ni 5.94707767 5.44801900 13.45301683
Ni 17.15617209 2.16008406 13.51934283
Ni 5.63168805 1.51921643 17.56669898
Ni 6.41380746 10.83076448 12.49600745
Ni 0.28827876 12.19372301 8.61562029
Ni 15.60410770 10.77556143 5.98493678
Ni 6.11159461 16.08488669 3.56922034
Ni 1.67347532 3.62024017 17.22997280
Ni 9.37964514 17.33109235 9.45059144
Ni 7.25834787 14.67163660 4.87996304
Ni 16.83877536 15.22680711 1.58623954
Ni 9.02635030 5.05767870 1.39476235
Ni 11.06900552 3.91595799 1.25344103
Ni 15.69210650 2.35285071 11.81695806
Ni 17.27178393 2.42233024 8.59073052
Ni 10.17703959 0.80768071 16.68048023
Ni 7.28878233 12.39346246 8.73387270
Ni 3.97741423 8.52203052 5.75404419
Ni 13.13530360 2.90184962 14.37530810
Ni 9.45690964 1.52054008 10.78068242
Ni 3.33658082 8.23723840 12.58297774
Ni 8.14301724 13.07279799 0.05968628
Ni 5.76124800 13.56972460 12.52541327
Ni 12.67400691 16.58642884 8.72881703
Ni 12.65945602 5.98340932 2.63643047
Ni 7.12742455 3.71787608 8.96772272
Ni 16.06592539 16.72242221 15.26158704
Ni 6.40046672 10.83484870 17.47364334
Ni 2.53126729 8.95454261 3.95026578
Ni 12.35271922 11.05307040 5.12952332
Ni 0.40932909 17.30443668 1.87627661
Ni 3.97291798 13.82011148 6.31718932
Ni 0.24067359 7.18857504 5.87587921
Ni 8.74176125 10.33104548 7.12113414
Ni 13.01728896 16.59306340 11.31999536
Ni 15.83776317 13.89534884 7.38866825
Ni 4.37603059 0.24462100 4.37052215
Ni 5.76155624 0.85305978 6.05575396
Ni 5.39382649 12.83727960 7.77317658
Ni 5.89988410 2.44596209 15.42359362
Ni 8.13409421 0.72577734 7.10469847
Ni 1.69217761 5.31709988 11.52522299
Ni 10.00802312 3.78759817 5.43590099
Ni 4.37607207 1.10037419 2.10636885
Ni 1.93409572 15.96990087 17.42007719
Ni 7.99401251 14.31754848 14.52992287
Ni 1.78561920 3.17023298 11.84347804
Ni 4.61933871 12.15613011 13.52841410
Ni 5.97520086 8.67595701 5.20774907
Ni 3.65346152 1.85778451 6.33775832
Ni 2.57273718 5.95666972 2.18464619
Ni 5.92459288 4.91600661 6.66509179
Ni 0.67061742 13.13555923 4.57795267
Ni 7.61120551 9.01208138 15.86248458
Ni 16.64578088 10.14214225 9.30725633
Ni 2.55124155 0.52712300 16.22898547
Ni 15.34724170 8.41023317 9.71899345
Ni 2.07105935 10.05964447 7.36420015
Ni 15.72414718 4.33219979 7.92712754
Ni 14.71877667 13.98187042 4.37945477
Ni 2.71525147 1.99624952 10.16051194
Ni 4.40089580 10.04037432 13.33835252
Ni 7.33117825 9.31732042 13.72204801
Ni 10.26203997 1.46279935 5.30953399
Ni 1.87547375 16.65917122 13.49170629
Ni 12.16542255 8.10106713 2.14256407
Ni 6.68254002 11.27226838 6.96347588
Ni 9.30697173 7.47724141 16.44294927
Ni 13.76397957 12.05950952 0.76637019
Ni 5.24989234 3.60482687 17.36914551
Ni 2.05094235 1.73103027 1.59732064
Ni 16.18934107 12.76163668 3.03602263
Ni 2.06565877 11.98259705 0.73671735
Ni 15.04285914 2.27663166 8.78760829
Ni 14.65878580 17.49668203 8.05464393
Ni 9.29568095 15.44172170 6.60279669
Ni 6.10307741 7.59513979 2.79587631
Ni 17.16498678 3.24511153 4.15743518
Ni 17.52149183 13.44148063 12.70323283
Ni 9.06393573 10.80410128 13.56299694
Ni 8.83644327 16.03111810 11.19289954
Ni 0.94922593 10.92307313 12.33332467
Ni 1.75161346 2.18720333 15.21133850
Ni 5.99236000 8.56409578 0.59936411
Ni 8.84769916 7.80386862 10.14372681
Ni 12.45949360 8.93125022 13.25711089
Ni 2.69246059 15.21535899 15.31302830
Ni 1.89001164 12.31895028 11.06876053
Ni 16.41858202 9.17236748 17.15825804
Ni 5.81605927 0.86671228 14.24115466
Ni 7.29656366 12.18972820 10.98905422
Ni 8.79162071 16.86046982 15.50230928
Ni 2.62065374 8.57185473 17.27433904
Ni 3.00410467 9.84456745 11.39120340
Ni 5.13724117 17.33697431 8.09574693
Ni 8.38090614 7.61997220 1.01611551
Ni 12.86654239 12.90692219 11.91620050
Ni 12.51493537 17.59220295 13.87373409
Ni 0.43312415 1.74468543 10.97401591
Ni 3.49367153 1.99833391 17.32490994
Ni 7.87612088 8.47050484 8.11433645
Ni 11.53754832 1.38453498 12.53658522
Ni 4.61735393 12.61983245 0.69025885
Ni 15.36805705 7.68671241 6.41229141
Ni 11.49825749 7.46563127 11.69134910
Ni 12.56611801 16.68681838 16.99335317
Ni 7.54076854 11.45403685 1.69783465
Ni 8.10142498 1.84960443 5.02631483
Ni 0.54539457 9.33843942 15.47125605
Ni 14.58888441 9.91402653 1.08760487
Ni 8.42419818 4.96356461 13.27371282
Ni 10.91851826 3.26449055 16.50926347
Ni 11.71164881 1.86260214 3.57708500
Ni 1.59038548 15.83559082 2.82805925
Ni 6.25548143 14.30662637 1.71874660
Ni 6.56186197 5.32836257 0.04517898
Ni 15.42920079 17.02590358 1.84433632
Ni 10.15882175 8.19146642 13.03264702
Ni 17.41442334 9.96341893 4.05527027
Ni 6.98576162 6.18434688 10.95811925
Ni 10.81250839 13.39617354 3.26088525
Ni 11.64398212 14.84590507 0.94124768
Ni 4.33505152 10.93860084 7.30437111
Ni 14.80510204 14.74619056 16.04085978
Ni 11.49044737 13.23059312 6.61210834
Ni 7.53238982 1.60212654 1.78371976
Ni 3.37523366 13.34952337 2.50545952
Ni 7.60352200 1.18927001 15.30459885
Ni 17.04849396 9.00121996 13.48598861
Ni 11.74370696 2.44222650 9.30799579
Ni 8.86877915 2.36086923 13.29424886
Ni 3.17834085 10.30363374 15.46429612
Ni 15.16279027 6.25387446 8.57563458
Ni 9.99333277 2.11644651 7.41051978
Ni 7.73351871 2.74930866 16.91210315
Ni 6.83446119 5.13652740 15.56416534
Ni 15.85950101 13.98791551 10.16315726
Ni 7.82024126 10.28931046 4.67863257
Ni 15.74368289 2.51256763 2.60944482
Ni 14.86260024 15.87440863 0.12886033
Ni 15.02995216 7.42967643 17.43185245
Ni 9.36694634 2.19735824 2.99554041
Ni 5.27380727 15.05363108 0.09738578
Ni 9.89750675 9.48075667 5.59876681
Ni 13.63181295 7.58702216 3.93447971
Ni 13.34863837 4.77053109 6.83627485
Ni 10.34516540 9.43365135 1.47108410
Ni 3.22157285 3.58533190 8.31318867
Ni 12.22660558 14.22891219 15.62127350
Ni 16.20372636 12.93141900 5.50437511
Ni 6.96827541 9.85353512 9.61916130
Ni 7.59331864 1.59435694 9.46127479
Ni 8.39860606 8.16688610 5.92506632
Ni 14.63626274 3.88677093 3.91782611
Ni 9.80731257 5.76618019 11.62359756
Ni 5.23224520 15.35227037 8.97854203
Ni 11.04459994 11.11855279 7.93483100
Ni 9.41551383 14.75824297 4.43981065
Ni 6.50130175 5.82389131 4.57656598
Ni 2.03449162 9.46111028 13.61059757
Ni 14.23443465 10.71490250 16.82972613
Ni 4.23619804 4.79392823 3.83763780
Ni 4.60967729 5.27071104 1.63428732
Ni 2.09326549 4.46106902 4.69239944
Ni 11.53910830 7.47474827 9.56461812
Ni 3.38190806 12.60964140 15.83504834
Ni 9.82125887 9.51744926 15.25162533
Ni 6.14601568 7.84263352 9.39449478
Ni 6.00303419 14.04367550 10.47634656
Ni 5.98834198 10.05091530 2.45709074
Ni 10.27891073 4.50622831 3.15364411
Ni 8.35512375 14.84846845 9.08570737
Ni 11.69901683 8.75709473 4.60525847
Ni 14.32275317 11.66441064 4.55408379
Ni 8.51879549 5.95396048 6.45839578
Ni 8.26962135 16.24993271 2.87985707
Ni 11.46781087 5.33225406 9.83343365
Ni 9.82053410 9.43191947 8.92031224
Ni 9.76211351 14.15489983 1.02087507
Ni 11.62312122 10.48166816 2.77200477
Ni 2.06722796 10.86314620 9.22647560
Ni 15.42911104 12.56625515 12.49186423
Ni 6.82144992 16.45129140 10.25283667
Ni 5.86800228 14.68676124 15.34558365
Ni 3.81617264 11.11796390 2.25968039
Ni 10.40979173 11.09424378 16.46787646
Ni 3.43731132 3.42471521 1.65463677
Ni 0.05428172 4.96377649 5.80706341
Ni 3.32382153 0.63028310 12.15070540
Ni 0.55789299 1.57827031 3.41691479
Ni 3.86177905 16.11826726 3.25622249
Ni 2.51705060 5.84227668 9.22088994
Ni 10.45171476 5.58244634 14.82626428
Ni 16.21761035 7.79238108 15.49765346
Ni 13.07288653 12.62442778 2.87567026
Ni 7.30030832 16.76818732 5.44766101
Ni 11.75521394 11.74822811 9.79860804
Ni 14.61115371 11.93867333 14.90207800
Ni 8.85700802 3.47838615 15.15207270
Ni 7.99278792 9.43180074 2.43456894
Ni 4.56777207 11.42967727 11.26998873
Ni 12.77940654 1.02161987 16.02777074
Ni 4.21276043 16.55878796 16.24166677
Ni 8.67512268 5.42051551 16.57410110
Ni 7.09114997 3.65176536 1.18870379
Ni 3.40665237 17.27884010 0.85829179
Ni 7.64683099 16.41634864 7.70448991
Ni 9.93235411 8.80999554 3.51421038
Ni 16.21325936 1.06309169 16.07730358
Ni 17.51742556 2.81137760 1.39170238
Ni 16.96050380 17.52900531 13.20071694
Ni 7.54489372 8.09010880 4.11435400
Ni 9.98967119 13.16616649 8.37793277
Ni 3.61201814 1.41128422 14.31525718
Ni 10.87986122 16.84644936 12.24897130
Ni 3.87143935 1.40083424 8.41629616
Ni 3.64837226 4.20765743 15.95141080
Ni 11.10679685 7.76439640 14.82633019
Ni 8.11025682 11.59074630 16.13502871
Ni 4.98932811 4.76758179 8.64133967
Ni 3.85920261 3.04480080 12.09888847
Ni 7.98350619 3.74854192 11.48242215
Ni 0.16323961 5.56777437 16.00610578
Ni 3.73270724 4.05644734 5.85537581
Ni 7.79048361 3.79888281 3.26281785
Ni 7.10671847 14.29486127 7.61779785
Ni 0.71901279 13.15057045 17.06899394
Ni 0.75248077 14.72078813 10.44886283
Ni 11.02187884 0.00779705 3.87634929
Ni 16.60857834 7.09801617 1.98078004
Ni 7.15149137 5.85000710 8.64765140
Ni 15.27912052 8.42251921 12.29199815
Ni 13.51367730 13.72709613 13.90470881
Ni 15.44222430 8.80185536 4.51555102
Ni 11.23040013 1.91246338 14.87010711
Ni 0.44211210 3.95918029 14.60794666
Ni 12.88472578 11.49903381 13.69454436
Ni 12.72616996 4.16848627 15.99678840
Ni 14.21326556 2.91670551 6.80699815
Ni 5.60847392 4.46253526 11.20667227
Ni 12.01054175 3.17497411 7.11697993
Ni 0.39464691 6.24190985 9.77287060
Ni 17.24627311 15.21155299 14.37556305
Ni 12.01773861 5.97564073 7.78490112
Ni 8.41186045 7.17867742 12.35618766
Ni 16.71008280 3.61387357 17.01144890
Ni 9.65770177 12.84567438 15.20675192
Ni 16.93992294 11.84403498 13.82395979
Ni 14.50965374 7.84589481 1.92177064
Ni 0.91378347 8.93633544 9.65763429
Ni 14.73226742 5.84536527 2.18894475
Ni 13.13978625 14.83418483 5.71233108
Ni 3.42323487 8.10292241 14.76284692
Ni 13.40815715 8.47317537 10.82007720
Ni 12.76475739 10.78330529 11.52146148
Ni 9.91923300 14.87745382 13.28523935
Ni 9.82949098 11.56973938 3.18846223
Ni 5.74010396 13.10321779 5.50792416
Ni 12.16603937 4.02074701 5.06580149
Ni 13.55420757 6.28679373 10.36904523
Ni 15.75970053 6.46832229 10.67695502
Ni 10.87302979 5.81468183 16.98198451
Ni 14.97788577 5.40825252 16.53322013
Ni 8.78348479 6.68346904 2.98678429
Ni 0.91860563 13.58878898 14.94713232
Ni 2.83603146 13.86761879 17.36770746
Ni 17.02532894 15.49653766 12.15776700
Ni 2.25969335 4.22040583 13.92483511
Ni 16.19397238 13.19624709 16.11941703
Ni 2.40815882 6.22733801 15.66237969
Ni 4.14143666 6.99916967 3.74644907
Ni 8.86128857 9.56280250 17.51685927
Ni 11.96600598 14.92358158 12.37963521
Ni 3.55510192 12.28728434 9.78165023
Ni 9.01020313 5.70123658 9.53762484
Ni 1.81745288 9.89747500 2.20072709
Ni 12.38577401 9.69994092 9.11352849
Ni 12.37288484 1.71510886 5.63159494
Ni 11.48279542 12.59337477 1.30968376
Ni 3.83099482 13.32919271 11.68969266
Ni 11.27914314 15.97010718 5.32316818
Ni 6.87006210 3.46023200 13.77708191
Ni 9.73864272 2.17260640 0.90172248
Ni 0.62706725 17.02281043 9.18368973
Ni 5.66223614 7.61314232 13.82889799
Ni 11.03616480 15.96725958 14.80127856
Ni 11.76229693 0.45190321 10.27470902
Ni 10.66180291 6.82737272 1.42343476
Ni 9.72539235 11.51526273 0.82026667
Ni 1.00336798 13.58404096 1.99848535
Ni 1.79918079 0.42262174 5.06631794
Ni 12.18446667 10.12009066 0.74784515
Ni 10.19262666 17.49733773 7.10089315
Ni 13.87885160 1.95711277 4.50960089
Ni 6.47032466 17.04261474 16.49066228
Ni 2.27639659 7.40650417 10.49639973
Ni 6.15163045 3.02440536 5.45714316
Ni 15.61105304 2.95298738 14.53303205
Ni 10.82456234 13.44529523 11.05903379
Ni 5.04382393 10.47346130 9.27127440
Ni 13.55894964 7.62910088 8.34139549
Ni 14.83361836 17.21130361 12.50890362
Ni 5.66238547 16.80588868 12.37736756
Ni 13.18965941 11.01343775 7.65519245
Ni 14.81678831 9.25183903 14.74050693
Ni 11.41505026 8.19075569 17.34365708
Ni 10.99710484 10.67952206 12.83205557
Ni 15.96100679 1.46022345 0.72814405
Ni 14.15650497 0.70744884 10.44032780
Ni 15.50487046 16.12665621 10.46404034
Ni 5.66020274 2.37837934 3.24815657
Ni 10.94391700 15.62760668 10.18542691
Ni 15.43487059 5.05526587 5.82414842
Ni 14.13363344 15.16208467 2.18649494
Ni 15.79581492 0.75087164 3.97876193
Ni 10.18353228 11.80976107 5.49200402
Ni 1.47052001 4.09864539 9.60637254
Ni 4.54331669 6.05111204 15.15766072
Ni 16.38675762 0.64222899 10.05009683
Ni 1.07450638 15.73116032 5.49105975
Ni 10.30981565 4.45924781 7.69950636
Ni 16.73310847 9.26453820 1.93057483
Ni 3.87765077 14.50136914 13.52178437
Ni 12.80202730 3.69040654 2.70185174
Ni 3.87837153 12.52228397 4.51310639
Ni 12.78133335 6.95733004 5.94984864
Ni 6.97051170 0.62279867 3.59466762
Ni 13.44179731 14.13405479 0.01723830
Ni 5.15656854 9.22286182 16.20840305
Ni 3.18261990 14.42741955 9.46945833
Ni 14.43931966 7.15511939 14.58411861
Ni 11.41868400 9.01373770 7.34858938
Ni 14.79964543 3.61749719 10.47464992
Ni 8.00288008 3.33660834 7.17861866
Ni 10.02821159 7.14755440 8.07445958
Ni 6.17753131 16.88066975 1.37933885
Ni 9.71004041 11.39541315 10.89412354
Ni 16.41068409 2.84514787 6.27756983
Ni 2.02700332 11.54474025 3.52350541
Ni 17.54571828 15.14404472 16.64077199
Ni 9.66553053 0.21047695 13.69720695
Ni 2.23006798 12.27165971 13.55167924
Ni 2.18114601 6.50605524 13.24965375
Ni 10.80238013 9.23260118 10.98753411
Ni 3.88143382 7.62831678 1.56751483
Ni 17.08044491 7.99267764 8.02616341
Ni 0.29588268 9.32804630 6.28205665
Ni 10.89068774 6.82340100 3.62127968
Ni 12.47472382 15.16926884 3.43605128
Ni 7.26615468 12.36257190 13.97559583
Ni 1.21683114 3.35883936 7.49360921
Ni 15.88570396 6.56823769 4.22008132
Ni 15.70896963 10.78186465 2.88288653
Ni 0.65821340 7.36534237 14.59166148
Ni 1.11952663 2.63404502 5.29561794
Ni 7.52411448 14.77265457 12.17476489
Ni 0.17396909 7.75422347 3.76983285
Ni 6.77962618 5.70771321 2.21593454
Ni 16.42224085 15.83183874 8.45499574
Ni 9.38423564 3.50900480 9.53421805
Ni 3.60446090 4.39859847 10.45930517
Ni 4.19760921 6.23724688 5.81565512
Ni 12.80002147 2.98843881 0.38735935
Ni 8.04598964 12.32433473 4.61503146
Ni 16.63824016 0.57035640 7.45487057
Ni 4.45524690 7.23609864 7.96876018
Ni 8.34257595 9.31462673 11.71593545
Ni 14.14180127 15.16253394 8.05547714
Ni 16.31001469 5.45024379 14.59751938
Ni 6.08470905 8.18032038 11.60198906
Ni 17.08172103 12.15748581 10.77740050
Ni 8.19590706 0.21559337 0.10929769
Ni 2.33556212 14.14313183 4.05356547
Ni 9.66789086 0.21474885 2.25748196
Ni 6.36190032 7.20849223 15.96866032
Ni 10.57410755 5.93646096 5.78809449
Ni 4.54000261 8.86972523 10.36483358
Ni 17.32701960 14.81122634 3.50508507
Ni 4.12189080 16.75492135 14.08572144
Ni 0.83622038 8.52386662 11.83234187
Ni 13.90835685 13.10576352 6.81839382
Ni 5.74168903 9.08208684 7.51088563
Ni 1.86269830 14.40213905 12.60602467
Ni 13.42982834 8.79870001 16.98667237
Ni 12.15351795 13.55652145 8.54583998
Ni 14.74184944 16.49639233 5.93301304
Ni 5.86284763 12.86345113 16.53310736
Ni 15.72895519 11.82889838 7.93451840
Ni 0.81750617 11.50482014 15.54103775
Ni 5.66281262 1.44104591 12.06116378
Ni 0.51743340 1.63114164 16.92815840
Ni 2.79944020 5.29674381 0.05043275
Ni 13.56652501 15.95572023 14.66420479
Ni 2.57003530 0.25240580 2.88021074
Ni 9.00738388 13.31113767 6.29630064
Ni 15.50635999 15.90957629 3.90400009
Ni 14.99917156 3.91786469 0.99052716
Ni 12.65395629 17.32147527 6.55868119
Ni 17.24415046 6.71274984 12.55956923
Ni 10.33366369 16.59615326 0.39448093
Ni 13.60260142 9.18089039 6.01926823
Ni 12.34939888 5.13285767 11.84388525
Ni 12.62579877 6.53497163 13.60419920
Ni 14.55827336 0.83495768 14.48700339
Ni 15.60388432 13.78117941 0.50782196
Ni 16.71346248 4.38903856 12.34312537
