500
Final configuration Lattice="20.40000000 0 0  0 20.40000000 0  0 0 20.40000000" Properties=species:S:1:pos:R:3
Au 20.33844214 20.34011772 20.33668637
Au 20.38833116 1.97344655 1.97749356
Au 1.90683169 0.00060437 2.05514880
Au 2.11288721 2.04681019 0.01971909
Au 20.35729179 20.36420102 4.11571132
Au 0.08012446 2.05438797 6.16338389
Au 2.11582510 0.09676386 6.09721411
Au 2.03223627 1.95962050 4.09429349
Au 20.32048303 20.38634571 8.19011965
Au 0.06525772 2.05671099 10.21058936
Au 2.08845783 0.04149152 10.28578813
Au 2.12345194 1.99576497 8.23259153
Au 0.02174185 0.03429797 12.27638047
Au 0.10882051 2.08793475 14.34596881
Au 2.07455660 0.04915437 14.33930409
Au 2.03774094 2.00689331 12.27947655
Au 0.01890481 0.07172377 16.42368986
Au 0.07714207 2.08700848 18.43158204
Au 2.01742363 0.12057488 18.52529068
Au 2.12648180 2.08938208 16.43156276
Au 0.03677621 4.03229966 20.36065595
Au 20.39220263 6.07550274 1.99856525
Au 2.13772874 4.05022582 2.09353950
Au 1.98388351 6.12671626 0.10541096
Au 0.13751318 4.05073145 4.00520846
Au 20.37382002 6.16382617 6.07950470
Au 2.11885954 4.10481110 6.11888465
Au 2.00915601 6.08697471 3.97740885
Au 0.04416513 4.09327089 8.19989097
Au 0.04252537 6.20127940 10.17604896
Au 2.04776837 4.17003524 10.28548970
Au 1.97953744 6.11210263 8.12041445
Au 0.02342307 4.05008188 12.18517101
Au 0.01753688 6.04683244 14.22607962
Au 2.09116342 4.06598115 14.35582768
Au 2.03324562 6.10204890 12.27096210
Au 0.04226130 4.08723462 16.39828319
Au 0.07104546 6.13874420 18.37300165
Au 2.09403355 4.04693974 18.37416057
Au 1.90512014 6.15422068 16.26002353
Au 20.33846568 8.20376993 0.03071054
Au 20.31333802 10.30530059 2.07702126
Au 1.97017134 8.13956482 1.99967738
Au 1.87631613 10.23070847 0.07618601
Au 20.36603822 8.14819292 4.01419902
Au 20.36856359 10.18440883 6.09640322
Au 2.05691888 8.18656401 6.01696512
Au 2.10117612 10.22273548 4.09974302
Au 0.04661958 8.14971775 8.13102404
Au 0.02623783 10.17940060 10.21285438
Au 2.06288009 8.13310592 10.22904865
Au 2.00817925 10.34889897 8.15022542
Au 0.08933611 8.10718080 12.30801007
Au 0.01412836 10.20458395 14.35619751
Au 2.08914344 8.23953183 14.38298852
Au 2.03686136 10.25040927 12.27236440
Au 20.30458555 8.14924675 16.38589811
Au 20.36271584 10.28158385 18.38517467
Au 1.90680119 8.20619553 18.39349491
Au 2.02104353 10.17997660 16.35234673
Au 20.38340732 12.39179390 20.37948126
Au 0.05323645 14.30496902 2.05678567
Au 2.13507726 12.32434981 2.04644495
Au 2.08267321 14.33188058 0.03740680
Au 20.33877322 12.30886115 4.04703053
Au 0.05454693 14.20790265 6.06987126
Au 1.99121510 12.23523227 6.09350104
Au 2.01635839 14.31501668 4.00986711
Au 20.33059378 12.29513028 8.06422730
Au 20.38764863 14.35123095 10.27638477
Au 1.97816399 12.30670351 10.22870124
Au 1.87102615 14.26821087 8.10858705
Au 20.37501803 12.24157254 12.27240414
Au 20.31121064 14.30441101 14.19751959
Au 2.01209982 12.33667947 14.33607383
Au 2.13883450 14.27072383 12.23886167
Au 0.06553334 12.30024798 16.29323643
Au 0.00779737 14.29762602 18.26224557
Au 1.99437952 12.38446913 18.36612418
Au 2.08160743 14.43378239 16.35517874
Au 20.36613908 16.36937929 0.01715994
Au 20.39193302 18.33833081 2.09458147
Au 1.98219774 16.45322088 2.13099140
Au 1.99981589 18.34640258 0.00187823
Au 0.13342261 16.28242917 4.15875599
Au 0.08614129 18.34406110 6.06266830
Au 2.13469032 16.30536868 6.18042592
Au 2.05298605 18.34068328 4.21182183
Au 20.31864758 16.28524520 8.11509915
Au 0.03324287 18.44911959 10.20775707
Au 1.92689488 16.33078305 10.17582527
Au 1.99681897 18.32827786 8.12942863
Au 20.28173302 16.34645529 12.23064782
Au 0.03516436 18.32514908 14.29740235
Au 2.01626218 16.26725779 14.32835562
Au 2.02108120 18.27517834 12.27030068
Au 20.33107916 16.41135648 16.30556351
Au 20.34133983 18.31433696 18.33417559
Au 2.02686298 16.38585197 18.43402112
Au 2.05361922 18.44885625 16.27653649
Au 4.15572362 20.39643469 0.00894221
Au 4.06946427 1.95506056 2.03092302
Au 6.17451990 20.37696689 2.01318535
Au 6.17808872 2.01353316 0.09619890
Au 4.15354589 20.36665258 4.03003913
Au 4.09125608 2.03222719 6.07693728
Au 6.14103574 0.06299682 6.12644697
Au 6.13038605 2.11544234 4.01943878
Au 3.97699556 0.05320690 8.14438598
Au 4.09675662 2.05619804 10.31433161
Au 6.09558289 20.36953197 10.16870311
Au 5.98179222 2.04967353 8.23370985
Au 4.11402592 20.31964515 12.34201150
Au 4.11200852 1.96534551 14.35179549
Au 6.22309689 20.35989610 14.25232996
Au 6.08321526 2.03058573 12.16951686
Au 4.05751190 0.02773176 16.44414428
Au 4.15309443 2.12169748 18.40193368
Au 6.11187094 0.01531097 18.44268848
Au 6.13087905 2.04101852 16.36427565
Au 4.08268219 4.16039288 0.04105059
Au 4.12374027 6.17693552 2.09000665
Au 6.04578785 4.10123401 2.02276066
Au 6.12697644 6.13116555 20.35112606
Au 4.27434865 4.08784059 4.10189862
Au 4.06183357 6.08870640 6.06919032
Au 6.16796387 4.06631255 6.16109241
Au 6.20550040 6.18516840 4.12642899
Au 4.02909523 4.09424998 8.21196068
Au 4.08018058 6.15051259 10.26973890
Au 5.99414314 4.07835408 10.36112224
Au 6.18135350 6.10601723 8.12137612
Au 4.03272131 4.16789554 12.36095951
Au 4.06943865 6.18300649 14.37733714
Au 6.12772520 4.01748333 14.51639595
Au 6.01855744 6.10657834 12.35299388
Au 4.07152005 4.11741582 16.36140759
Au 3.99825844 6.10471183 18.34954085
Au 6.11031443 4.08600078 18.41940445
Au 6.05718218 6.10021121 16.37320491
Au 4.04243135 8.18324342 20.39338194
Au 4.12672643 10.17769610 2.06619633
Au 6.20147097 8.26077158 2.17312411
Au 6.10602401 10.09622334 0.04367189
Au 4.21734796 8.22353888 4.05724383
Au 4.03113501 10.20715279 6.12431037
Au 6.09349856 8.16310750 6.09481947
Au 6.15716344 10.33382558 4.03964622
Au 4.13006404 8.10435829 8.09095400
Au 4.01594214 10.18818442 10.15114073
Au 6.09364835 8.27077451 10.15115532
Au 6.09440471 10.19762606 8.12262199
Au 4.05329578 8.13914430 12.19583075
Au 4.01983138 10.13068048 14.35137882
Au 6.13809862 8.21792621 14.33829732
Au 6.05425690 10.19944458 12.20721238
Au 4.02205821 8.17889095 16.40853564
Au 4.02860710 10.19270792 18.37451562
Au 6.17625711 8.20675991 18.34975794
Au 6.17085489 10.20583658 16.30305769
Au 4.08790053 12.23115552 20.35845268
Au 4.10062375 14.37978047 2.09158998
Au 6.17770501 12.25430285 1.95994317
Au 6.15320809 14.32494647 20.39812177
Au 4.16078034 12.26668588 4.13193466
Au 4.05073282 14.27646015 6.04545459
Au 6.08923559 12.23421161 6.16161585
Au 6.05180374 14.27522803 4.13922752
Au 4.07007348 12.34857738 8.15556156
Au 4.03237124 14.34251004 10.17685997
Au 6.10717691 12.32461280 10.21656992
Au 6.08624914 14.32677652 8.07878461
Au 4.10491181 12.22823456 12.26474995
Au 4.12141446 14.23732972 14.31156364
Au 6.17192573 12.21736856 14.31322035
Au 6.13277082 14.33921943 12.21770296
Au 4.04238779 12.29419083 16.35506535
Au 4.13935315 14.25226897 18.36490207
Au 6.15346240 12.19257936 18.32758148
Au 6.13464320 14.21062714 16.30616309
Au 4.10527900 16.23474453 0.02808732
Au 3.96011313 18.37755196 2.09009845
Au 6.11043474 16.33493287 2.10490035
Au 6.11196417 18.24270604 0.03066494
Au 4.12289541 16.38062969 4.07236461
Au 4.09310455 18.43991123 6.18037849
Au 6.17925431 16.41611506 6.11463546
Au 6.16153224 18.39323495 4.03862399
Au 4.09459783 16.28386867 8.22077162
Au 4.01565041 18.35427195 10.24647810
Au 6.07388638 16.26693391 10.13178004
Au 6.14332148 18.39044749 8.20338558
Au 4.08915122 16.34002811 12.28592870
Au 4.03788323 18.40837080 14.41376426
Au 6.03877673 16.33335101 14.36590823
Au 6.12297116 18.31539367 12.21107046
Au 4.09753281 16.32527714 16.38898887
Au 4.08280519 18.32206604 18.40897803
Au 6.07705900 16.33244177 18.35766467
Au 6.07986218 18.45509516 16.32747286
Au 8.18794422 0.04254418 0.06465374
Au 8.24477199 2.12179429 2.04426388
Au 10.28258131 0.04041813 2.08842221
Au 10.24209768 2.10325579 20.37648173
Au 8.18201135 0.05113020 4.02177955
Au 8.15444635 2.04825803 6.12184622
Au 10.13060349 0.06336668 6.08401067
Au 10.21872764 2.11256965 4.03636718
Au 8.14467898 0.04592192 8.19347341
Au 8.07649538 2.02190278 10.26298295
Au 10.17257690 20.39939563 10.22992715
Au 10.17410007 1.99568170 8.22456519
Au 8.26268789 20.36628640 12.30658138
Au 8.01857847 1.95603935 14.39606631
Au 10.24704441 0.04244131 14.16979468
Au 10.11873968 2.09435986 12.26707661
Au 8.13646599 20.31403714 16.37064800
Au 8.15842410 2.12462334 18.35094445
Au 10.17330677 0.02957337 18.41264961
Au 10.11553242 2.02733463 16.23147538
Au 8.20735215 4.09050468 20.35192735
Au 8.12689425 6.07057012 1.98425828
Au 10.17714279 4.09734688 1.91574895
Au 10.20546991 6.04333116 20.32420542
Au 8.12745006 4.11471216 4.15693238
Au 8.16041544 6.18033880 6.23258812
Au 10.15201061 4.05931175 6.16373300
Au 10.18265951 6.13014683 4.00320844
Au 8.13930812 4.07099909 8.16395628
Au 8.14517369 6.06315002 10.17745046
Au 10.25012631 4.00373718 10.23425931
Au 10.27736928 6.03503691 8.18127220
Au 8.14823052 4.17746246 12.32139561
Au 8.12562664 6.18129158 14.25486564
Au 10.22736331 4.05975350 14.26929843
Au 10.18194179 6.05935604 12.16036537
Au 8.21401044 4.09552571 16.27490031
Au 8.15935138 6.12569510 18.40478746
Au 10.27709994 4.07829694 18.30265665
Au 10.29599463 6.12844117 16.30209369
Au 8.22048865 8.14013101 0.06713759
Au 8.24619597 10.19380477 2.15846258
Au 10.27903949 8.05502437 2.10704599
Au 10.16680576 10.11978393 0.06000278
Au 8.21413467 8.19573745 4.09147438
Au 8.10977706 10.18507974 6.03006552
Au 10.30930595 8.19308598 6.17982765
Au 10.28945947 10.25916427 4.10665157
Au 8.22685674 8.18321770 8.14457000
Au 8.09949174 10.21308370 10.15199092
Au 10.13476709 8.15824369 10.14371643
Au 10.16909095 10.25958500 8.09417244
Au 8.07688145 8.20828518 12.13907943
Au 8.17099616 10.12423167 14.16495065
Au 10.17940807 8.08658101 14.17040290
Au 10.25392522 10.15090961 12.18650189
Au 8.25905343 8.07159173 16.30656378
Au 8.17304187 10.15498759 18.39876950
Au 10.20839957 8.10127872 18.41957096
Au 10.19236493 10.00558944 16.32571965
Au 8.16601954 12.25703684 20.39439321
Au 8.13112962 14.32839848 2.01272120
Au 10.19212755 12.28265764 1.96549073
Au 10.16971717 14.31603571 20.35433507
Au 8.20573111 12.29005724 4.09201350
Au 8.15738085 14.24018083 6.11026486
Au 10.20402911 12.19630323 6.11366186
Au 10.18223722 14.21792305 4.11585459
Au 8.09086036 12.21748404 8.21822770
Au 8.01553534 14.25318822 10.13906592
Au 10.13888860 12.19167579 10.20458481
Au 10.10722151 14.24084971 8.14332158
Au 8.10394547 12.20815833 12.25624246
Au 8.05806999 14.31858150 14.32338262
Au 10.25703536 12.16651980 14.25690694
Au 10.09437859 14.25739875 12.26254320
Au 8.28499776 12.19924466 16.37601985
Au 8.16699922 14.34293235 18.27754354
Au 10.30234125 12.23871814 18.39029893
Au 10.17644918 14.36600584 16.24338069
Au 8.21334549 16.32787689 20.36422895
Au 8.18499976 18.43737987 2.00920367
Au 10.15652747 16.28919585 2.03129813
Au 10.28222507 18.35801322 0.06950914
Au 8.20532981 16.23690256 4.13231315
Au 8.10151057 18.43776151 6.11403138
Au 10.27448685 16.30932403 6.09594703
Au 10.14644338 18.33175505 4.11321642
Au 8.09683625 16.33403120 8.09171126
Au 8.24203709 18.38063509 10.19846514
Au 10.13795906 16.27249784 10.11590112
Au 10.21875105 18.43142196 8.09372938
Au 8.07316476 16.31883489 12.12072507
Au 8.11661893 18.31036475 14.28574703
Au 10.18569502 16.41560453 14.15078470
Au 10.24222021 18.40787992 12.13349770
Au 8.19289880 16.34473577 16.31130527
Au 8.13095131 18.40550713 18.44975224
Au 10.11107174 16.43542017 18.33473535
Au 10.14540186 18.33397842 16.27747963
Au 12.23773013 0.13659774 0.01346944
Au 12.21013077 2.06583344 2.04213276
Au 14.33526966 20.31784903 1.94560605
Au 14.27424287 2.08671399 20.30006018
Au 12.30500264 0.00498252 4.12240553
Au 12.25686900 1.94175137 6.14908440
Au 14.36687506 0.02670438 6.20938383
Au 14.24283857 1.97205830 4.11406745
Au 12.24890137 20.36907584 8.10240187
Au 12.20045875 2.02254373 10.04966995
Au 14.34135620 20.38574894 10.21004782
Au 14.32330446 2.00735876 8.27704900
Au 12.35170163 0.04540380 12.16375828
Au 12.28830444 2.02099420 14.27790577
Au 14.28790596 0.00806214 14.37458842
Au 14.36306351 2.05682498 12.18370324
Au 12.11567252 0.01827639 16.25440884
Au 12.36996029 2.10661376 18.28551195
Au 14.22452730 0.03090124 18.34822738
Au 14.39349271 2.01104750 16.24327575
Au 12.27313670 4.09350274 20.32898968
Au 12.15778434 6.06823512 1.99382564
Au 14.25509670 4.03819303 2.03111377
Au 14.32420020 6.00309312 20.38208352
Au 12.24239095 4.09463418 4.05937346
Au 12.17826000 6.08631891 6.09105623
Au 14.30743183 4.04946574 6.14723408
Au 14.26497128 6.08861068 4.07240422
Au 12.27209293 4.06485949 8.15302805
Au 12.17847645 6.10005901 10.19980765
Au 14.28542141 3.97487873 10.13961289
Au 14.24556562 6.10299289 8.18847953
Au 12.28290794 3.97470916 12.21762587
Au 12.22352362 6.07358186 14.13010395
Au 14.26234949 4.07447519 14.23594964
Au 14.22615836 5.98704245 12.16156726
Au 12.28358018 4.04404462 16.26242638
Au 12.28385206 6.03139113 18.34907767
Au 14.39509405 4.05400776 18.27706202
Au 14.37599640 6.12050261 16.25408257
Au 12.17527580 8.13869327 20.38964357
Au 12.25521210 10.07887112 2.02925167
Au 14.25132781 8.01616867 1.91802621
Au 14.23193172 10.09812490 20.35344310
Au 12.34538784 8.09185423 4.11067286
Au 12.31776158 10.21382955 6.11431779
Au 14.30129451 8.06741705 6.13811321
Au 14.28820410 10.09398824 3.98538635
Au 12.33668850 8.12151145 8.13758707
Au 12.24161485 10.24718326 10.14786743
Au 14.31372415 8.14433639 10.21094034
Au 14.38273515 10.19296221 8.15603412
Au 12.24742754 8.15992514 12.11218280
Au 12.23370316 10.12691444 14.20023882
Au 14.33360655 8.04365294 14.18391613
Au 14.22608440 10.17720638 12.22302597
Au 12.28526286 8.05851531 16.17465933
Au 12.21855478 10.10715625 18.37787541
Au 14.27236315 7.98321079 18.30392266
Au 14.28028331 10.10538784 16.30326754
Au 12.36985974 12.20358362 20.33691288
Au 12.23175150 14.30188289 2.13970796
Au 14.19124953 12.22853250 2.12948120
Au 14.27077737 14.24167136 20.28198388
Au 12.16850369 12.25508254 4.11921193
Au 12.20751171 14.33160369 6.10209322
Au 14.31813500 12.27561899 6.02141370
Au 14.23204898 14.35067858 4.08789799
Au 12.28796991 12.27832988 8.12433377
Au 12.15185927 14.27328790 10.18430191
Au 14.22015370 12.24832410 10.25514303
Au 14.35854202 14.29890936 8.19933254
Au 12.28084736 12.34135025 12.20982648
Au 12.39544154 14.30886371 14.25708338
Au 14.27861834 12.17144615 14.26189253
Au 14.33061175 14.30428133 12.27102638
Au 12.30632336 12.19724779 16.24748038
Au 12.21414276 14.34138148 18.41981940
Au 14.37768091 12.10829947 18.32406285
Au 14.32348738 14.29185040 16.25095453
Au 12.22819897 16.29233161 0.07471334
Au 12.25664414 18.28843007 2.08930249
Au 14.31280561 16.32203206 2.01250497
Au 14.25190001 18.36844417 20.31229417
Au 12.24421128 16.30459177 4.03739392
Au 12.28999483 18.32291393 6.10792162
Au 14.35044101 16.35150742 6.14568062
Au 14.35555042 18.36633597 4.03849429
Au 12.31189268 16.25146813 8.25202492
Au 12.20333749 18.43446060 10.09648231
Au 14.32374844 16.39968539 10.18640325
Au 14.25488572 18.43034946 8.16453928
Au 12.24297127 16.30212737 12.10418559
Au 12.27410662 18.38765823 14.21280611
Au 14.30804500 16.34541798 14.35269819
Au 14.27763546 18.34713422 12.24488474
Au 12.26091217 16.33425192 16.36331191
Au 12.20227481 18.48942973 18.34543149
Au 14.26460391 16.40265904 18.34726057
Au 14.29907077 18.35981810 16.36105966
Au 16.35052517 20.31115638 20.35028759
Au 16.23712945 2.08902530 2.04643127
Au 18.38508111 20.35652391 2.01876738
Au 18.27390863 2.03150927 0.05130704
Au 16.36717780 20.39845280 4.02882524
Au 16.34280714 2.00030403 6.10000529
Au 18.45085136 0.04152648 6.11586168
Au 18.38992142 2.06181010 3.99121385
Au 16.40609021 20.34747631 8.18943542
Au 16.34175445 2.00422885 10.18284295
Au 18.38766028 0.14546209 10.25612024
Au 18.38481806 2.11526499 8.10502245
Au 16.27363104 20.33860469 12.34010210
Au 16.40404743 2.02046255 14.20277538
Au 18.47318734 0.16484742 14.31267419
Au 18.36111457 2.08248058 12.23270067
Au 16.38171976 20.38728379 16.26791461
Au 16.34554715 1.97300501 18.43699688
Au 18.43939750 20.37203894 18.45871237
Au 18.40821584 2.02634393 16.36531227
Au 16.33861268 4.04433916 20.36077410
Au 16.32856087 6.03695549 2.12097244
Au 18.39102471 4.06163233 2.02352831
Au 18.41347446 6.15861577 20.38381781
Au 16.37558779 4.08826096 4.12207709
Au 16.30578556 6.06470252 6.09258546
Au 18.50466543 4.06245856 6.07565886
Au 18.46651632 6.02870764 4.07643654
Au 16.40976503 4.02798503 8.23727280
Au 16.33370396 6.01579354 10.15596906
Au 18.46679595 4.05004096 10.16593828
Au 18.37623315 6.00460541 8.04463002
Au 16.32184864 4.08448577 12.11458650
Au 16.44961884 6.03938618 14.21287179
Au 18.46465236 4.06694023 14.33135081
Au 18.47992804 6.14679791 12.18925063
Au 16.33217205 4.01518036 16.28355376
Au 16.31691612 6.06188147 18.22997192
Au 18.42867284 4.01554260 18.37632923
Au 18.38719577 6.08934229 16.32980255
Au 16.30852979 8.10326480 20.37429414
Au 16.43573755 10.16372206 2.16330904
Au 18.43018934 8.24181109 2.00966128
Au 18.34610957 10.31153244 20.36629524
Au 16.34100579 8.06559391 4.06095578
Au 16.41931597 10.20538629 6.11212803
Au 18.29861895 8.08014991 6.15537223
Au 18.43060520 10.15931112 4.18091756
Au 16.35400168 8.07090732 8.17548843
Au 16.30429211 10.20678528 10.25925996
Au 18.40964100 8.14602979 10.17253666
Au 18.39953718 10.22234491 8.16027196
Au 16.35489555 8.11624415 12.13940221
Au 16.27365659 10.16979075 14.24953146
Au 18.25694060 8.19812099 14.21858277
Au 18.40460274 10.10420111 12.23949184
Au 16.29861262 8.15644220 16.28111669
Au 16.35839929 10.14541954 18.39535825
Au 18.39168543 8.18265645 18.41822405
Au 18.35832557 10.25693713 16.26425516
Au 16.23358706 12.13043976 0.01136101
Au 16.26862559 14.30308502 1.87897599
Au 18.33567409 12.34774948 2.09628804
Au 18.41397293 14.33125084 0.03130322
Au 16.29030323 12.24328133 4.04053225
Au 16.26780563 14.30997673 6.12164548
Au 18.33328749 12.36750855 6.04128583
Au 18.31144392 14.35684930 4.01912276
Au 16.27696715 12.19337973 8.18472371
Au 16.32802899 14.19494505 10.17871673
Au 18.29424207 12.20332636 10.24752378
Au 18.32337892 14.24753058 8.23154815
Au 16.29237636 12.16463343 12.28059684
Au 16.29284245 14.22273963 14.26798596
Au 18.44778258 12.22768856 14.29898996
Au 18.31099501 14.35901679 12.25921963
Au 16.26962772 12.17699333 16.20117187
Au 16.35258623 14.28929256 18.39643062
Au 18.27002847 12.23119492 18.32892245
Au 18.28736238 14.34830193 16.26063594
Au 16.31096353 16.28707159 20.31286940
Au 16.42268520 18.30015732 1.99924080
Au 18.38786654 16.33228510 2.01349975
Au 18.42811284 18.28492724 0.04350869
Au 16.25527636 16.26811314 3.98673197
Au 16.32891390 18.51654200 6.09619511
Au 18.25202189 16.30519671 6.02525501
Au 18.37159598 18.26560865 4.09026052
Au 16.36724536 16.39686841 8.22144283
Au 16.32488592 18.42528629 10.24981014
Au 18.40087568 16.37000315 10.19586643
Au 18.47153805 18.36448330 8.08520110
Au 16.33425982 16.40828718 12.31698732
Au 16.26063113 18.39365980 14.37480229
Au 18.25691897 16.33303141 14.29271769
Au 18.41549204 18.49672661 12.26549278
Au 16.30376990 16.32710932 16.35775228
Au 16.32591466 18.36414246 18.29666589
Au 18.35156563 16.32004557 18.41588499
Au 18.39896483 18.45722728 16.38920322
