500
Final configuration Lattice="20.45000000 0 0  0 20.45000000 0  0 0 20.45000000" Properties=species:S:1:pos:R:3
Ag 20.44979464 0.03754687 20.43352333
Ag 0.06771218 2.05480784 2.09996729
Ag 2.14245057 20.39803710 2.09705567
Ag 2.22961376 1.94270583 0.07335784
Ag 0.07204570 20.41219085 4.10527008
Ag 0.07730166 2.01075752 6.23425216
Ag 2.10683139 0.01488817 6.17616389
Ag 1.97701421 2.14259948 4.21248990
Ag 0.04100495 20.42570978 8.26336413
Ag 0.00609598 2.09719969 10.27154719
Ag 2.09502368 20.35041917 10.18809997
Ag 2.08658650 2.01147783 8.26423455
Ag 20.44201694 0.02337133 12.19041351
Ag 20.42024573 2.05324697 14.22564934
Ag 2.10121346 0.02386084 14.32118199
Ag 2.02638812 1.99208241 12.30984623
Ag 0.09797204 0.00348265 16.25891288
Ag 0.05559523 2.05079006 18.37014946
Ag 1.98395250 0.04853207 18.47929094
Ag 2.13250280 1.96790828 16.45820534
Ag 0.01641381 4.05570551 20.43966759
Ag 0.07399614 6.16074468 2.09441862
Ag 2.09633169 4.06708196 2.06534273
Ag 2.13427981 6.20356305 0.01057729
Ag 20.36461426 4.12446424 4.13273221
Ag 20.42117170 6.09417648 6.11460014
Ag 1.96764345 4.15359987 6.21382056
Ag 2.06487584 6.10105830 4.09135621
Ag 0.00678615 4.08521624 8.22405628
Ag 20.37663611 6.00642964 10.33585514
Ag 2.14005649 4.16101726 10.25281336
Ag 2.06882657 6.16065416 8.13630943
Ag 20.38517686 4.06674892 12.32480004
Ag 20.44381003 6.09898842 14.34747167
Ag 2.00593300 4.06197357 14.38973452
Ag 2.09486129 6.06137688 12.26037642
Ag 0.04176838 4.07248576 16.39815462
Ag 20.37510313 6.14829376 18.41924406
Ag 2.07546411 4.04484115 18.41427277
Ag 1.99707477 6.12824232 16.36722047
Ag 0.06031304 8.18543909 0.05359310
Ag 0.01606441 10.17631431 2.11707904
Ag 2.06602170 8.30130010 2.04827353
Ag 2.03166442 10.27350926 20.44244535
Ag 20.44080806 8.18209750 4.13721903
Ag 20.42752868 10.19096734 6.10901443
Ag 2.19138250 8.23553626 6.18517916
Ag 1.93527300 10.21893163 4.10032724
Ag 0.05957181 8.09833002 8.09116142
Ag 20.38215964 10.25521187 10.21156875
Ag 1.93987608 8.18666742 10.17895965
Ag 1.94282400 10.22299004 8.19515366
Ag 20.41212006 8.16986423 12.30695520
Ag 20.37503532 10.28797420 14.33114898
Ag 2.04510310 8.05364298 14.31542922
Ag 1.98308393 10.16488511 12.22347384
Ag 20.40947679 8.25096634 16.40794849
Ag 0.04631238 10.21549254 18.47531356
Ag 2.02805035 8.21833282 18.37379345
Ag 2.05654955 10.29268356 16.36171099
Ag 20.37230658 12.33531279 0.09567328
Ag 0.03926205 14.26245052 1.98889089
Ag 2.17162190 12.24031651 1.95735054
Ag 1.99628175 14.32595680 0.06360403
Ag 20.37686220 12.24991093 3.98859309
Ag 20.43666362 14.38873895 6.04225585
Ag 1.99694152 12.33342946 6.03873784
Ag 1.96957477 14.35465628 4.07854410
Ag 20.39531508 12.28305342 8.08306828
Ag 20.31808190 14.38975171 10.14624387
Ag 1.93846006 12.20119446 10.22063004
Ag 2.05085916 14.32927888 8.13699626
Ag 20.37852993 12.28484047 12.27170050
Ag 0.04031935 14.24841420 14.27346974
Ag 2.06353350 12.13187312 14.18311510
Ag 2.13092021 14.29431986 12.24542208
Ag 0.05113218 12.25912011 16.40319877
Ag 0.01489494 14.30396842 18.43826480
Ag 1.94237768 12.25244409 18.46512436
Ag 2.07788264 14.33628687 16.30006166
Ag 0.00020536 16.40231854 0.01380395
Ag 0.05138393 18.40464810 2.02429687
Ag 2.02950589 16.40061911 2.11671169
Ag 2.18286573 18.38229395 0.08678518
Ag 20.31845486 16.47533336 4.04257682
Ag 20.43832343 18.41166627 6.16530124
Ag 1.97583703 16.21983528 6.13654854
Ag 1.93695208 18.26811710 4.19464661
Ag 20.39590997 16.39991847 8.18608138
Ag 20.33937338 18.33791112 10.22832799
Ag 2.09995681 16.17760461 10.21429337
Ag 2.04283406 18.37125539 8.18167737
Ag 0.07012802 16.35096288 12.31069812
Ag 0.02567285 18.37495986 14.33603996
Ag 1.97247107 16.35244561 14.30374450
Ag 1.95377833 18.33668312 12.18553627
Ag 0.09520685 16.37035636 16.40661020
Ag 0.08768298 18.40610354 18.45957348
Ag 2.05594047 16.32571980 18.37575456
Ag 2.00653208 18.38270076 16.34204355
Ag 4.07905662 20.39028184 0.00346774
Ag 4.09959747 2.06863029 2.14193524
Ag 6.12150015 20.40611063 2.02258708
Ag 6.16438552 1.97084564 0.07009486
Ag 4.01228076 0.15770315 4.15405962
Ag 4.02822767 2.16503868 6.14330588
Ag 6.04158306 0.02592815 6.17600702
Ag 6.21156723 2.03974515 4.00547178
Ag 4.09266163 20.44651735 8.26581805
Ag 4.05938709 2.15670526 10.25200095
Ag 6.14025180 0.00450662 10.28683628
Ag 6.16234091 1.99912607 8.26193455
Ag 4.02035722 20.37110533 12.09448498
Ag 4.10867677 2.07366613 14.38489988
Ag 6.10322704 20.42366881 14.42239507
Ag 5.97323889 2.06630508 12.24748100
Ag 4.08261398 20.44443672 16.37512055
Ag 4.18721711 2.05248957 18.45127587
Ag 6.09496682 20.34607943 18.40477705
Ag 6.14413848 2.11522085 16.42486442
Ag 4.17851263 4.05541001 20.43790870
Ag 4.11010867 6.18641074 1.98202386
Ag 6.12637813 4.11014585 2.08260712
Ag 6.16295677 6.22386683 0.10156668
Ag 4.15975326 4.16989220 4.13534780
Ag 4.16651547 6.24831778 6.04921049
Ag 6.16900625 4.03836573 6.13711179
Ag 6.27685520 6.12257035 4.11005360
Ag 4.12299364 4.15950492 8.09546290
Ag 4.07640367 6.12944321 10.26057829
Ag 6.14893839 4.15498327 10.33706536
Ag 6.30454945 6.16217430 8.16867559
Ag 4.03528491 4.00727269 12.39955805
Ag 4.05505567 6.13812613 14.41420914
Ag 6.14650977 4.17495985 14.38942440
Ag 6.09940552 6.16890532 12.16488108
Ag 4.09183378 4.03325731 16.32212590
Ag 4.22976656 6.03275017 18.49014155
Ag 6.19089830 4.16156044 18.49364603
Ag 6.10968595 6.25780308 16.40531057
Ag 4.19042135 8.14495627 20.36333255
Ag 4.12230331 10.17906199 1.93769808
Ag 6.22153651 8.18740875 2.14556021
Ag 6.17759274 10.19378707 0.03306570
Ag 4.11402305 8.23391115 4.04683866
Ag 4.11898446 10.21533744 5.99196571
Ag 6.16417300 8.14873998 6.05917087
Ag 6.11320979 10.21868782 4.03761359
Ag 4.12443618 8.21793774 8.19443467
Ag 4.19349421 10.22897635 10.21894124
Ag 6.16099288 8.22977405 10.27349924
Ag 6.15388721 10.17422132 8.21876506
Ag 4.02281036 8.20758839 12.22366184
Ag 4.03004245 10.19077240 14.22047084
Ag 6.08461342 8.18812524 14.24207908
Ag 6.16673746 10.23652174 12.29343565
Ag 4.10708693 8.27623836 16.38784562
Ag 4.08973397 10.23715917 18.48944485
Ag 6.22528315 8.35245099 18.42934441
Ag 6.14255035 10.13033743 16.38351998
Ag 4.09418505 12.28922944 20.43398291
Ag 4.13489350 14.40201104 2.09381792
Ag 6.14700779 12.31346072 2.00237241
Ag 6.10507983 14.42418539 0.01198127
Ag 4.11359448 12.26297398 4.04762317
Ag 4.15806540 14.27447684 6.09858779
Ag 6.17336747 12.25096246 6.12586531
Ag 6.13425714 14.37303950 4.08924759
Ag 4.04085222 12.18019147 8.14333010
Ag 4.09010163 14.24887436 10.22673837
Ag 6.17113263 12.22807152 10.13347965
Ag 6.20539818 14.22083290 8.08382857
Ag 4.02936326 12.18866149 12.24632593
Ag 4.03117512 14.17557985 14.28267764
Ag 6.01498276 12.22307210 14.35858334
Ag 6.13105666 14.29471783 12.17248278
Ag 4.13103635 12.20170257 16.48399223
Ag 4.03131460 14.35474653 18.42230279
Ag 6.19144260 12.27160862 18.48673173
Ag 6.11693963 14.26167111 16.44283684
Ag 4.13161444 16.28052054 0.01417236
Ag 4.08224920 18.40969646 2.12759716
Ag 6.20412898 16.52234993 2.20992696
Ag 6.11638485 18.31493133 0.07841192
Ag 4.10216908 16.30938269 4.16020548
Ag 4.07906987 18.31317196 6.14264649
Ag 6.19887012 16.33092140 6.10129134
Ag 6.16148385 18.60722470 4.07508729
Ag 4.13296992 16.34113541 8.09906362
Ag 4.13372703 18.30698747 10.20294943
Ag 6.14050152 16.26320829 10.13687680
Ag 6.19862340 18.39849140 8.17493949
Ag 4.10994228 16.33662751 12.34764199
Ag 4.03280631 18.40688308 14.20585909
Ag 6.21475313 16.15149983 14.35611800
Ag 6.03527095 18.32969071 12.27206220
Ag 4.12057029 16.28501819 16.27444496
Ag 4.07473739 18.32763265 18.29725215
Ag 6.16664705 16.40300313 18.37303966
Ag 6.11971344 18.36581530 16.31467054
Ag 8.12649776 20.39721644 20.39325777
Ag 8.12684332 2.10896953 2.09210048
Ag 10.07079542 0.09209223 2.00925783
Ag 10.22078825 2.13224636 20.42868007
Ag 8.23769904 0.04829758 4.13270698
Ag 8.26534908 2.02666755 6.09162653
Ag 10.24414082 20.43345490 6.24282160
Ag 10.23886224 2.05237809 4.10825212
Ag 8.18866315 0.07995977 8.29741266
Ag 8.22706447 2.14444248 10.34359516
Ag 10.18346436 0.08243269 10.32230260
Ag 10.15787621 2.09985477 8.14421589
Ag 8.13478258 20.39627322 12.26761948
Ag 8.09942256 2.03266130 14.51131612
Ag 10.20390595 20.38958581 14.26621997
Ag 10.23366469 2.09029876 12.36098753
Ag 8.25294051 20.41266962 16.44110697
Ag 8.12183927 2.12885088 18.40423968
Ag 10.26085028 0.06771822 18.39791727
Ag 10.19940963 2.03613999 16.38808295
Ag 8.22539154 4.10108696 0.01232200
Ag 8.16401030 6.11938730 1.99639706
Ag 10.24656511 4.11066638 2.09501156
Ag 10.23902912 6.15877968 20.37959073
Ag 8.26310123 4.10153917 4.15239742
Ag 8.19941725 6.19669350 6.12164160
Ag 10.27291389 4.11114437 6.09340863
Ag 10.22610650 6.23544422 4.07628601
Ag 8.22322764 4.10300249 8.11255487
Ag 8.15186383 6.10413819 10.24802819
Ag 10.09031189 4.06059674 10.22689570
Ag 10.22116879 6.15444484 8.13375514
Ag 8.11627357 4.05278240 12.37907067
Ag 8.17737899 6.26509130 14.37653503
Ag 10.16890592 4.09989814 14.29885411
Ag 10.18662109 6.13761928 12.34908892
Ag 8.15189652 4.11444344 16.39402004
Ag 8.09804504 6.23987145 18.43278227
Ag 10.12278919 4.08774032 18.40701442
Ag 10.07321644 6.23180721 16.40055653
Ag 8.18643785 8.21812769 20.42683610
Ag 8.23150592 10.23544377 2.13427148
Ag 10.27822476 8.21113712 1.99562588
Ag 10.21139471 10.25884713 20.43223734
Ag 8.29052708 8.23334139 4.17721040
Ag 8.18295779 10.28761860 6.22214098
Ag 10.31880590 8.26893626 6.12879412
Ag 10.22389820 10.35537255 4.17803572
Ag 8.23522828 8.15524345 8.17989822
Ag 8.23206892 10.24772017 10.17205856
Ag 10.17020573 8.18916610 10.31727810
Ag 10.28043735 10.29917047 8.15631062
Ag 8.15502098 8.12228416 12.24530137
Ag 8.16691035 10.33025134 14.19292408
Ag 10.14231243 8.23367686 14.35631002
Ag 10.12242405 10.14098625 12.25118447
Ag 8.20615882 8.26772765 16.31248725
Ag 8.26700563 10.22209322 18.39134459
Ag 10.16284149 8.21338419 18.56549701
Ag 10.23273407 10.23472848 16.37331351
Ag 8.20241683 12.14886804 20.43981724
Ag 8.11366812 14.30600720 1.98216237
Ag 10.26138908 12.35468446 2.12405558
Ag 10.25714906 14.27231926 0.00978020
Ag 8.07629298 12.34975312 4.06438397
Ag 8.22575827 14.29835880 6.19605122
Ag 10.27982055 12.23693632 6.17938129
Ag 10.30257234 14.25359225 4.04877043
Ag 8.27180148 12.28809920 8.09212757
Ag 8.24044977 14.19070266 10.14675193
Ag 10.22786798 12.23363072 10.25481900
Ag 10.24789973 14.18500564 8.12962327
Ag 8.18984792 12.28597568 12.17790514
Ag 8.17822205 14.20206450 14.31521358
Ag 10.27361054 12.24451984 14.38339575
Ag 10.24187266 14.35938016 12.28060594
Ag 8.13554564 12.23905649 16.38886427
Ag 8.27698962 14.41465016 18.49867708
Ag 10.15166051 12.25139021 18.41285848
Ag 10.16598000 14.24927063 16.35115869
Ag 8.09091272 16.42108703 0.05309395
Ag 8.18947091 18.47792114 2.06780327
Ag 10.07767444 16.34866628 1.96056960
Ag 10.22732262 18.46154140 0.03485449
Ag 8.35469635 16.37547568 4.13051540
Ag 8.16070643 18.39069939 6.20835376
Ag 10.15371147 16.38097856 6.16074657
Ag 10.30398197 18.39127239 4.16971318
Ag 8.20046808 16.35743276 8.26002294
Ag 8.17617596 18.41720984 10.31210247
Ag 10.23803872 16.29280355 10.22673051
Ag 10.14738835 18.44029279 8.26949484
Ag 8.11681938 16.29024928 12.24697990
Ag 8.13626747 18.30964165 14.24638011
Ag 10.23348493 16.25502556 14.26314814
Ag 10.21269039 18.27305561 12.31513037
Ag 8.27726294 16.32656738 16.26979141
Ag 8.19067711 18.36359394 18.27883681
Ag 10.25389211 16.43950869 18.35159914
Ag 10.25338157 18.43237837 16.26974614
Ag 12.25274698 20.43535086 0.09103931
Ag 12.24841303 2.17601890 1.91809926
Ag 14.24186218 20.44422068 2.20348346
Ag 14.32216946 2.03359652 20.31562736
Ag 12.22401900 0.03154653 4.13557373
Ag 12.16889945 2.06739686 6.15469497
Ag 14.26864394 0.07426901 6.12862838
Ag 14.29732760 2.00695850 4.08373384
Ag 12.16604687 0.08320580 8.17175543
Ag 12.14133125 1.95068536 10.20157543
Ag 14.28198724 0.03875164 10.08957132
Ag 14.31580822 2.06525751 8.19552738
Ag 12.32220195 0.00867436 12.24995474
Ag 12.21116668 2.13515782 14.30892730
Ag 14.26468906 0.07257485 14.31113673
Ag 14.37324547 2.09627934 12.24583512
Ag 12.20740545 0.05667573 16.32794124
Ag 12.22345892 2.11326626 18.34595200
Ag 14.33287241 20.42858949 18.45502908
Ag 14.33837608 2.00126720 16.40124988
Ag 12.30957367 4.12554372 20.32274392
Ag 12.24116509 6.15367181 1.94503444
Ag 14.33579672 4.10593744 1.98439723
Ag 14.51690444 6.26349923 20.26920286
Ag 12.31587329 4.11783353 3.97362486
Ag 12.28579453 6.15658753 6.09238481
Ag 14.27591737 4.02236693 6.10241495
Ag 14.30109119 6.10594885 4.03549676
Ag 12.34661041 4.00941466 8.30231577
Ag 12.13967431 6.15128774 10.10132067
Ag 14.36791628 4.01788865 10.22991953
Ag 14.36141300 6.24741609 8.08392953
Ag 12.22591871 4.00454761 12.23680503
Ag 12.18957872 6.21596915 14.36563573
Ag 14.36899277 4.02956418 14.40306022
Ag 14.18053887 6.06376317 12.30657286
Ag 12.18124446 4.18075422 16.35203680
Ag 12.23711913 6.20874029 18.38005382
Ag 14.33408838 4.12682621 18.38158784
Ag 14.43188832 6.27882121 16.36736554
Ag 12.25932030 8.15881365 20.36503530
Ag 12.22166734 10.22363542 2.03069342
Ag 14.33547502 8.08778770 2.02998177
Ag 14.21350360 10.15529546 20.35164067
Ag 12.27112885 8.24346900 4.08327063
Ag 12.26306992 10.34058738 6.08860688
Ag 14.40080436 8.08660111 6.18937599
Ag 14.23364436 10.15237759 4.01413504
Ag 12.12539003 8.26350461 8.16048331
Ag 12.30215229 10.21367384 10.24303746
Ag 14.38248705 8.19419627 10.24801850
Ag 14.40422405 10.16083468 8.10115125
Ag 12.17954683 8.17083848 12.39614787
Ag 12.36465364 10.20456522 14.36209187
Ag 14.37898836 8.18541951 14.30107524
Ag 14.30237317 10.34401141 12.22422187
Ag 12.30051527 8.19039717 16.36918446
Ag 12.23405495 10.24468032 18.41280546
Ag 14.29184467 8.26435931 18.33633965
Ag 14.26371865 10.26128650 16.43576204
Ag 12.22713493 12.28822526 20.43114172
Ag 12.26460631 14.41063000 2.00486628
Ag 14.24982334 12.29676731 1.98607775
Ag 14.40887628 14.34939349 20.44653226
Ag 12.37429633 12.39212305 4.04781825
Ag 12.35694631 14.17960461 6.11294045
Ag 14.45949885 12.25220577 6.09814989
Ag 14.32699880 14.26767550 4.16615455
Ag 12.35039367 12.24988199 8.18205754
Ag 12.31153231 14.30672475 10.19118765
Ag 14.37630423 12.30443683 10.16635154
Ag 14.34890174 14.25716676 8.19113941
Ag 12.26954575 12.36464757 12.25430319
Ag 12.23723247 14.28075362 14.25691394
Ag 14.22413448 12.27081652 14.31328970
Ag 14.35871134 14.35661045 12.29083524
Ag 12.23989033 12.23401356 16.38656291
Ag 12.27066546 14.30747476 18.56110416
Ag 14.29140845 12.15011926 18.46893107
Ag 14.25151924 14.28447062 16.36616001
Ag 12.26412128 16.46264087 0.05671113
Ag 12.24751263 18.36861175 2.13771348
Ag 14.18001705 16.39970965 2.02941669
Ag 14.26620870 18.37389175 0.02670167
Ag 12.28906905 16.36160620 4.16279036
Ag 12.22869218 18.38233960 6.25233222
Ag 14.36128030 16.40541475 6.12624738
Ag 14.24581721 18.47591685 4.27982046
Ag 12.24487832 16.31419023 8.22854941
Ag 12.21072787 18.41470964 10.21498582
Ag 14.29966181 16.30125684 10.23359172
Ag 14.31263430 18.35537225 8.25881656
Ag 12.27247052 16.34469900 12.31635142
Ag 12.27923510 18.41730341 14.28092832
Ag 14.32629799 16.38037691 14.29928944
Ag 14.41796497 18.40923932 12.29560067
Ag 12.19895635 16.32331797 16.20809075
Ag 12.19881422 18.49594826 18.36914785
Ag 14.18900001 16.45704888 18.28985624
Ag 14.40023051 18.56504785 16.28570042
Ag 16.23913237 20.33706716 0.04080854
Ag 16.33968175 2.01073605 1.94177631
Ag 18.40846062 20.41651339 1.98730711
Ag 18.32784279 2.01080686 20.36199865
Ag 16.37642250 0.04325459 4.16425957
Ag 16.49052476 1.97144211 6.24151874
Ag 18.39647945 0.01800944 6.07364236
Ag 18.48041352 1.99161435 4.09750619
Ag 16.35851766 0.04248380 8.18632694
Ag 16.35707269 1.94027602 10.18942061
Ag 18.40270210 20.41079545 10.28721294
Ag 18.42198215 1.93799556 8.28364527
Ag 16.34409577 20.40091173 12.22543258
Ag 16.40625916 2.08752633 14.26255604
Ag 18.42783566 0.11477818 14.22904426
Ag 18.39157040 2.07300010 12.21871517
Ag 16.36302010 0.03460603 16.34886613
Ag 16.32068190 2.02972187 18.35381287
Ag 18.37367643 0.04926421 18.43966462
Ag 18.43938087 1.98592044 16.33977038
Ag 16.33862316 4.04991428 20.39027863
Ag 16.38915650 6.07438442 2.01718874
Ag 18.32990529 3.99870508 1.98147209
Ag 18.42971163 6.17432011 0.05361317
Ag 16.30663832 4.00921143 4.18032274
Ag 16.41829637 6.02617910 6.09433467
Ag 18.41581668 3.93016976 6.26103487
Ag 18.41416867 6.06142543 4.00647491
Ag 16.30484500 4.01044004 8.27678596
Ag 16.28251941 6.15546787 10.30979483
Ag 18.28496177 3.99174722 10.27836571
Ag 18.39373361 5.97870979 8.24502927
Ag 16.28010390 4.07981679 12.36867576
Ag 16.40954406 6.10340517 14.35845135
Ag 18.45230180 4.05879515 14.37752537
Ag 18.33800275 6.14521082 12.20071759
Ag 16.38497438 4.08761666 16.33554457
Ag 16.38425944 6.23013926 18.36086305
Ag 18.35107801 4.08724112 18.40107378
Ag 18.32717738 6.17287922 16.30507078
Ag 16.39515668 8.31683871 0.02568274
Ag 16.26747113 10.15948235 1.92810416
Ag 18.37185888 8.23980618 2.05161573
Ag 18.31478980 10.36283967 20.43466412
Ag 16.40236253 8.22966991 4.00893810
Ag 16.37926649 10.08049696 6.00796431
Ag 18.31247609 8.16233359 6.14719259
Ag 18.39459049 10.28030263 3.92504674
Ag 16.37870290 8.10627030 8.32200417
Ag 16.45422652 10.32142099 10.23743047
Ag 18.44955159 8.20510032 10.15646280
Ag 18.32148128 10.24190150 7.99862474
Ag 16.36990619 8.31521116 12.35764579
Ag 16.24543089 10.26805214 14.37675825
Ag 18.39755696 8.23103190 14.29558490
Ag 18.41265025 10.35741549 12.26104773
Ag 16.43419047 8.31329176 16.38231219
Ag 16.41965777 10.33780326 18.33784197
Ag 18.44361853 8.29140938 18.48541455
Ag 18.35918639 10.26437424 16.29609323
Ag 16.44424087 12.25934282 20.43311089
Ag 16.33117633 14.36525171 2.06009385
Ag 18.34177416 12.39942147 1.98577613
Ag 18.49629908 14.31478686 20.40266725
Ag 16.33195736 12.16957863 4.01172517
Ag 16.32223224 14.26267192 6.15637576
Ag 18.46727084 12.29027002 6.06360444
Ag 18.33228570 14.34101804 4.04774411
Ag 16.46982530 12.14969137 8.17944965
Ag 16.34724800 14.25592027 10.17651686
Ag 18.52119025 12.24147096 10.19019048
Ag 18.32228436 14.32081557 8.15791408
Ag 16.29262457 12.30206343 12.31169110
Ag 16.40165660 14.37222236 14.32578416
Ag 18.45964459 12.34124708 14.41686563
Ag 18.40171035 14.31966138 12.23623769
Ag 16.43279049 12.33904455 16.34008808
Ag 16.35446224 14.51143701 18.36587085
Ag 18.52130899 12.31950930 18.31559399
Ag 18.36475352 14.45515681 16.33287607
Ag 16.29426982 16.46269622 20.40159753
Ag 16.23342215 18.52967370 2.13640317
Ag 18.39481197 16.42182456 1.97185002
Ag 18.39806928 18.45024081 20.41753649
Ag 16.29456802 16.41542868 4.09337791
Ag 16.34695430 18.43053222 6.06295392
Ag 18.25270802 16.33774935 6.09389840
Ag 18.40084070 18.52016172 4.00918984
Ag 16.35698581 16.26125052 8.31126796
Ag 16.46141389 18.30928531 10.23051781
Ag 18.36995828 16.39131267 10.20977785
Ag 18.24292422 18.42959890 8.12533982
Ag 16.42537855 16.32726506 12.29382530
Ag 16.49019180 18.50538002 14.32041619
Ag 18.45477379 16.30364361 14.33714413
Ag 18.42442467 18.24457206 12.34216342
Ag 16.26517272 16.37577159 16.29686497
Ag 16.24229572 18.37355319 18.28489731
Ag 18.44098563 16.40506202 18.40172001
Ag 18.53035575 18.38422714 16.43803178
