500
Final configuration Lattice="18.07500000 0 0  0 18.07500000 0  0 0 18.07500000" Properties=species:S:1:pos:R:3
Cu 17.60501870 5.69567177 2.40090988
Cu 5.87535897 1.58057617 5.52061345
Cu 8.36344420 3.42526962 1.10739053
Cu 15.10171324 8.19034606 14.56466412
Cu 7.94579220 5.97884283 1.53708195
Cu 1.74340406 17.91865855 9.88246655
Cu 5.49714969 16.75982422 6.33278382
Cu 9.85672225 4.76643974 7.78365116
Cu 3.32797441 6.37692531 3.66654571
Cu 12.97126786 16.40376215 11.38365741
Cu 17.57128167 1.69072685 3.43288272
Cu 7.40424426 1.09462822 12.36585119
Cu 18.02101306 3.03242949 6.07321850
Cu 3.14155063 2.84937958 13.47407836
Cu 15.49791138 15.58007828 3.22650314
Cu 6.50681331 3.30435681 11.26170343
Cu 5.08509153 13.68254407 13.79516633
Cu 17.39711080 0.85823276 16.74830564
Cu 6.97499127 15.08053941 14.07789972
Cu 7.87607249 15.31995559 1.48654276
Cu 12.28930628 0.22346971 13.18912046
Cu 3.12035639 8.02784582 2.00431007
Cu 14.35673770 3.33987949 1.12565943
Cu 1.21620833 5.88564151 13.69410655
Cu 13.31307552 4.56235398 17.56569997
Cu 12.61221861 2.08346793 6.58850968
Cu 17.06724638 6.84878033 6.23451236
Cu 17.34778932 11.51087140 16.78833190
Cu 0.34871571 16.76055068 7.06684968
Cu 13.52200837 8.72507606 7.21235434
Cu 4.40149052 13.48656282 3.24252773
Cu 2.46627749 11.38770333 9.15306864
Cu 16.68939733 7.61518287 11.98545912
Cu 10.26280982 8.60745323 2.05704830
Cu 4.10417046 4.25080921 15.46194037
Cu 15.47055586 7.53367156 8.68930829
Cu 4.83271161 0.09303354 0.50917950
Cu 9.04026585 9.50974575 13.98059337
Cu 17.18898303 3.93972000 9.05928709
Cu 5.44333128 10.01197252 11.22564356
Cu 12.06381745 5.84024811 15.13467279
Cu 12.76657563 3.37220419 2.82308531
Cu 15.84335254 2.77250093 5.85015123
Cu 0.35455690 5.15787687 0.40187012
Cu 14.98415330 7.75043337 0.85347526
Cu 15.20268992 12.63498405 3.46599066
Cu 1.10274175 14.98050069 5.72907456
Cu 17.50093060 3.57181030 1.97711532
Cu 13.28728654 5.31351228 3.66841111
Cu 10.59903866 12.41106893 11.37002625
Cu 2.26063093 7.11591923 11.19155879
Cu 17.04035754 5.45999848 13.19494956
Cu 6.80429120 11.59331057 12.08293133
Cu 2.40524553 13.47681541 14.93746296
Cu 16.97315501 1.76724734 7.71198317
Cu 2.78291727 9.14129948 9.07165615
Cu 2.83220194 8.79835346 4.00723442
Cu 17.46137025 7.16418872 0.58198391
Cu 4.82423040 7.98875786 10.14984094
Cu 3.50290258 6.10511583 13.37438833
Cu 2.38359611 13.43065388 1.47168841
Cu 4.98434040 9.32126403 0.15350274
Cu 0.83426644 8.73309634 5.37005318
Cu 10.41878280 3.82479170 0.72546523
Cu 14.10167490 15.70076999 7.11326724
Cu 6.41687534 11.89676988 17.71846633
Cu 16.38280491 10.54412439 3.60745730
Cu 14.40038659 12.12721523 5.82760042
Cu 2.07205218 6.34318007 15.66082102
Cu 16.94424853 14.55158446 13.22613028
Cu 0.65761783 9.12200371 11.75643676
Cu 16.89557215 12.93893169 5.61660720
Cu 10.87913490 10.95459803 13.21594561
Cu 3.01567679 16.72941623 8.13505843
Cu 17.61993469 3.20245938 11.24636484
Cu 0.40104770 7.98238552 9.82590759
Cu 17.38392804 12.16470096 11.45192662
Cu 2.56855471 10.06589100 14.27090647
Cu 15.26983006 8.41753616 2.97981013
Cu 4.92548333 5.17435141 17.53190050
Cu 2.98885408 16.32900686 16.03368760
Cu 15.30883086 0.36466011 0.89606238
Cu 6.44507520 11.18363680 14.70403622
Cu 7.87487237 17.31723016 2.34194874
Cu 1.33258859 3.28426350 3.79922909
Cu 3.77015603 15.26690756 2.19844129
Cu 5.48387292 0.50059405 3.46056534
Cu 4.12404929 2.46641536 0.46882171
Cu 1.48100674 3.41143735 8.03660795
Cu 15.20507377 10.86910382 11.49023079
Cu 10.11220621 9.43400705 11.53737223
Cu 3.90247002 10.95503472 6.84243885
Cu 10.14197445 10.64269017 9.48632501
Cu 15.68000777 2.55260411 9.82470103
Cu 4.94674251 15.66393826 15.19658498
Cu 14.87458332 6.61109751 6.31583169
Cu 16.22533079 1.73775582 12.62037910
Cu 12.57719347 5.24262633 9.84552143
Cu 0.98234840 11.35664066 13.26312074
Cu 5.99477729 2.40332701 17.52094057
Cu 1.04557583 16.25668640 2.01908794
Cu 14.19762398 11.19335478 14.07027194
Cu 13.58517026 12.74541121 16.32180719
Cu 1.69688053 7.08235897 0.03612451
Cu 10.92174580 0.61511029 1.52921829
Cu 5.77661100 2.98005672 3.58756271
Cu 9.05344332 0.52564679 10.74857639
Cu 1.64715107 5.34277845 2.27338194
Cu 17.04803596 8.08090104 3.95234739
Cu 3.99817039 17.98447502 9.94457036
Cu 7.24660229 1.21055189 15.03827802
Cu 0.68230736 13.09298546 9.84910692
Cu 3.29248862 4.36981576 9.35446834
Cu 7.29663673 2.95036321 13.56404940
Cu 2.91620494 17.39812257 3.45796243
Cu 7.82563048 1.90069443 9.34961151
Cu 3.64121992 0.83724181 2.15044746
Cu 3.15641966 2.13841459 8.73462769
Cu 7.86333733 17.00250929 12.45990920
Cu 1.72417125 4.27298321 15.23073444
Cu 17.55982840 11.88880416 7.84947009
Cu 2.82504745 16.86647548 0.93043967
Cu 1.03644031 6.92590306 3.91029674
Cu 7.07031689 3.55970690 5.75547645
Cu 5.10315615 2.71007845 7.52868206
Cu 5.34495035 5.35602731 3.58771378
Cu 4.06080972 0.52245969 6.43518389
Cu 8.46032545 17.93969907 5.92807527
Cu 12.32191460 4.87571906 12.18830427
Cu 16.55276019 4.60667992 6.97942300
Cu 0.07872618 0.45973774 0.75896454
Cu 4.50515754 5.69508395 10.93692052
Cu 5.50858195 1.86330700 9.72391228
Cu 3.65566283 17.63220712 12.52043538
Cu 9.73727114 16.22907586 7.52399798
Cu 1.34484563 16.81868820 11.99261287
Cu 4.71370218 15.72103802 0.12915932
Cu 0.79796519 5.18283172 6.70222900
Cu 1.12438969 4.94893932 9.95361206
Cu 3.00524705 2.61242336 6.37055706
Cu 3.77986502 5.95303635 1.42459835
Cu 2.82444997 6.72645870 5.89969449
Cu 6.95617091 5.93886380 5.41767903
Cu 1.77446845 2.52234270 1.78314804
Cu 15.79221231 6.12565445 4.39766374
Cu 5.99139553 13.56635406 5.51533934
Cu 9.47963514 8.42015801 9.17701923
Cu 3.27404249 4.99160414 7.32459134
Cu 0.44772319 10.45075874 9.76480463
Cu 3.73319024 15.24633757 6.46984783
Cu 6.10114522 6.52817488 13.53049424
Cu 6.43949979 5.70948929 15.72191940
Cu 7.21432870 4.43940062 17.56274716
Cu 16.17180264 13.59639557 10.08745970
Cu 5.18718680 7.43063347 4.68539410
Cu 1.95279571 13.81092196 7.96418052
Cu 4.99112290 9.97150240 4.99965296
Cu 0.07199746 7.87438815 13.70846542
Cu 3.80811610 7.74414724 15.03811631
Cu 6.78107951 1.74396392 1.55937543
Cu 13.01238744 12.03553340 3.18039665
Cu 1.00472597 12.69582843 5.70096525
Cu 3.26625047 12.34506565 17.49089681
Cu 4.07322054 11.92871249 15.17601221
Cu 6.15639354 9.73667418 2.93163406
Cu 16.32388354 11.41153910 9.50497551
Cu 7.60612037 7.81451828 8.32326402
Cu 7.18718238 14.33080480 8.69520652
Cu 17.15319163 8.76117453 7.51942891
Cu 16.59843019 15.62998289 9.25470797
Cu 3.12024724 12.29065007 13.04352981
Cu 1.45509702 10.79999829 4.55858601
Cu 4.39626054 8.16426693 12.54632335
Cu 5.90549805 7.96361164 15.16421527
Cu 6.52915294 7.36472973 11.62603523
Cu 7.06928211 11.99969857 2.33769491
Cu 6.09677253 4.12022681 1.30824334
Cu 7.35338036 7.58945018 3.68763693
Cu 8.74574494 11.20492836 10.97496687
Cu 0.60241627 9.19933728 2.51968096
Cu 8.94539780 10.47783459 2.69455231
Cu 16.60766072 16.50223947 0.98202065
Cu 4.01448871 12.13201199 11.05499159
Cu 6.71522626 13.98600373 3.61611785
Cu 3.77471851 13.96064910 9.24221287
Cu 3.68474894 12.99913235 5.86822892
Cu 11.00866234 12.88521192 9.01504061
Cu 10.29217897 14.64991091 0.45765661
Cu 0.25466000 13.67538558 1.69845144
Cu 2.16346384 15.02820504 3.91192995
Cu 2.93928784 15.38950429 13.50990651
Cu 7.80978152 9.19038420 11.04840879
Cu 1.32494592 15.52170230 9.19283471
Cu 4.96770620 14.12869972 11.22538590
Cu 17.85137921 14.22831250 7.45062120
Cu 8.63188844 9.74897491 17.73951667
Cu 4.31122829 7.52566010 17.29886676
Cu 5.55591017 15.79671277 8.79741967
Cu 9.76391800 13.52220592 15.30612502
Cu 2.19183053 1.17190306 12.55297480
Cu 4.42189746 10.03484630 15.73758044
Cu 16.80158720 16.26662861 14.79693362
Cu 7.65680549 16.73025133 8.10927335
Cu 3.91032409 10.93955436 3.39055388
Cu 0.88667670 11.67331090 0.44913226
Cu 10.89441213 15.36950960 16.54769785
Cu 9.31244181 2.25183971 12.80643591
Cu 10.35244267 14.91513646 11.38148620
Cu 2.55516495 17.03361487 5.69610403
Cu 3.07313767 16.05649676 10.66275930
Cu 4.93344051 4.14512881 5.51706217
Cu 6.67803743 8.92435925 13.28135841
Cu 9.57219247 13.94377687 7.36687981
Cu 11.02290776 10.08265106 7.44601874
Cu 6.85077024 15.33023859 17.28023858
Cu 8.66658348 13.79450154 17.38343381
Cu 10.73958807 1.32749018 14.66024866
Cu 6.98988016 17.92216100 10.15039311
Cu 6.90675205 17.25563025 4.68443717
Cu 2.93107596 2.45869857 16.32764883
Cu 15.27232916 5.94202120 2.30372058
Cu 3.85843619 3.75238325 2.35549096
Cu 9.05509830 0.13466549 16.34932739
Cu 13.03768730 3.87261688 14.11904198
Cu 1.11346623 0.88410788 7.41666299
Cu 3.11853356 6.70395300 9.14544729
Cu 8.02661119 8.16347637 1.07902273
Cu 10.79218433 17.60667969 11.51211624
Cu 7.58159381 1.29660734 7.19953954
Cu 8.21624467 8.00840688 15.37117190
Cu 8.53146636 7.18696978 10.56929101
Cu 15.47652386 3.56396660 3.16359272
Cu 9.63611636 6.27369789 15.33913039
Cu 10.06297758 6.21410073 1.67679044
Cu 14.53424839 0.52808837 6.52495043
Cu 8.14216168 5.32889036 13.69903906
Cu 13.32024389 16.44839467 17.19924347
Cu 2.01982921 13.01801838 3.67388080
Cu 10.96230513 17.05183429 18.03887549
Cu 10.15592037 0.27950507 8.37674042
Cu 9.93162694 4.30543444 11.61036884
Cu 5.54874247 4.07074671 9.17797754
Cu 10.73180498 0.31145452 5.98899852
Cu 8.31646385 15.75439131 3.77908138
Cu 10.47304415 16.26175707 5.17877756
Cu 9.25258986 11.17948260 6.32087856
Cu 2.57289771 13.76086492 11.44482359
Cu 14.04375126 4.55489887 6.39186490
Cu 5.20250112 4.54643326 13.53658029
Cu 6.53833258 4.94968972 7.36837165
Cu 6.30522168 10.92925160 6.56651952
Cu 8.63342110 8.98043239 6.89458132
Cu 0.96738415 10.05992288 7.50368545
Cu 9.23664144 2.90179284 15.13255303
Cu 5.32388639 13.02203650 7.73159744
Cu 5.05315880 13.79864774 16.57232788
Cu 15.43710893 3.91188815 14.23773865
Cu 6.10543476 11.84163597 4.48211125
Cu 13.53809424 8.02378462 4.96385245
Cu 9.09096488 6.19531080 3.54789612
Cu 8.89928695 12.04708602 13.45584615
Cu 4.84590109 0.02164914 16.24062665
Cu 12.67570460 6.33169943 6.45808568
Cu 8.67597988 7.60165576 12.85045349
Cu 6.61128780 8.35168415 6.22121762
Cu 5.77847566 16.37622087 2.23196895
Cu 9.27024996 14.16065794 5.00301121
Cu 14.41536343 10.18663828 4.37651383
Cu 17.54493178 6.06689653 8.80024439
Cu 12.44327918 11.27416655 9.98274426
Cu 14.59861000 9.85587845 9.57743048
Cu 7.72420249 12.77535106 6.81327237
Cu 5.81478017 7.42929524 1.66437770
Cu 8.68238886 6.59820966 6.79993388
Cu 9.20864365 17.88419562 13.91464475
Cu 7.36524329 15.39601347 10.64810647
Cu 8.97796795 14.25290389 13.36267371
Cu 11.08052612 9.97214340 17.96672243
Cu 16.20999605 13.87566282 17.99756460
Cu 12.91447386 11.86544785 12.07234440
Cu 16.52031226 11.98850886 13.79790689
Cu 8.89330779 13.22010641 2.31216106
Cu 11.62156328 13.34138526 1.91603082
Cu 9.37676430 4.30823843 16.70287351
Cu 11.95686496 17.91202607 9.79589481
Cu 12.68659900 13.55694234 4.95763905
Cu 12.61284411 9.49077874 11.99773413
Cu 9.39889500 0.41715505 3.93882940
Cu 11.57085282 14.89441108 6.61797116
Cu 0.22656765 16.80714666 4.44320619
Cu 11.52063929 12.69027071 6.56183229
Cu 11.06828307 1.79452206 10.76285243
Cu 10.56227245 4.27576764 14.11212353
Cu 5.50261906 16.12602817 12.12524341
Cu 17.96788891 17.29914485 9.09576553
Cu 3.21245173 9.88081739 11.13731959
Cu 13.20886506 9.27213477 0.52267275
Cu 5.54167533 13.73722898 1.02065228
Cu 8.57738151 11.66573815 0.71947080
Cu 0.95671667 1.42406919 15.51368648
Cu 3.39682134 0.21430191 14.81425199
Cu 11.55716538 6.85893040 3.65583826
Cu 13.38699583 17.26572755 15.19745040
Cu 10.17240271 2.53610653 2.60688262
Cu 9.41688930 16.65528818 9.64235081
Cu 5.53084246 0.09875247 8.14200150
Cu 8.21581784 12.46858329 4.67784490
Cu 7.79196489 1.91896638 3.97876934
Cu 14.43458124 13.70684307 14.31991578
Cu 7.23769313 13.69924112 12.25065376
Cu 9.80058736 2.71814208 9.18702732
Cu 11.33945910 8.25416104 5.88665876
Cu 11.67516375 7.34603659 10.84541022
Cu 14.33048230 17.70267457 9.07006946
Cu 13.85763578 15.32522839 9.30672665
Cu 5.20435646 1.91525051 14.37128856
Cu 10.76893974 12.64857636 17.29879886
Cu 4.14145828 3.28973373 11.17451486
Cu 14.40188835 5.31103303 15.55968855
Cu 10.75331356 17.27629494 15.34748816
Cu 5.19460743 1.15391736 11.89741564
Cu 10.60992557 6.20355446 5.85774008
Cu 8.90495311 0.97360306 0.97535777
Cu 16.13398447 3.85563785 16.44809103
Cu 8.24933174 3.38360316 7.61161124
Cu 14.71065451 5.03346968 8.79829785
Cu 17.38653387 14.69546334 4.12706424
Cu 11.58959841 1.95089835 4.17706290
Cu 0.04793423 1.46655035 9.60164054
Cu 13.23214725 6.85382202 8.55065819
Cu 14.34934341 5.54905482 13.23226778
Cu 15.27926686 1.05594168 3.91771908
Cu 8.45928572 11.85560873 8.61973348
Cu 12.66655370 9.43189676 14.29405046
Cu 1.76910340 11.58799039 11.24503543
Cu 12.32396444 5.24571052 1.24257268
Cu 8.00222598 4.46483131 9.77218143
Cu 13.40064549 6.73946617 17.73841535
Cu 10.89929311 5.81441958 17.32822999
Cu 4.79860613 10.56722050 9.15110547
Cu 13.45332376 0.97407102 11.20843657
Cu 8.13270081 4.00623232 3.23774971
Cu 10.23714754 1.67128965 17.38561543
Cu 15.61862696 0.67868463 15.03797364
Cu 12.84396808 9.41915926 3.03164097
Cu 15.51676271 8.71425194 5.86317982
Cu 10.44057842 9.79799719 4.28101135
Cu 13.21079596 6.94588789 2.30561420
Cu 10.27442796 5.82777586 9.78977798
Cu 5.87316125 6.40111719 9.05658738
Cu 13.22343161 13.73056516 7.54991804
Cu 12.91291379 11.25298578 7.54708332
Cu 11.11437657 13.81845395 13.09530439
Cu 8.95440479 13.72152222 10.20238909
Cu 13.06489881 14.59434488 12.69601950
Cu 10.18747782 8.30362996 16.57420812
Cu 11.66257135 7.63563620 0.48384924
Cu 14.78321977 10.48440937 1.86675997
Cu 12.84836658 8.15661252 16.05296032
Cu 11.57147587 3.12546219 16.00088419
Cu 17.87156891 12.34325954 3.73982616
Cu 13.55041834 1.25036017 2.36330411
Cu 12.62446775 11.43012467 0.71440543
Cu 6.75970895 10.10122728 1.02455250
Cu 16.16963186 13.83617951 2.07532231
Cu 12.02875306 12.33776672 14.75620246
Cu 11.08423462 10.79639180 2.39748073
Cu 14.62738539 14.59683958 5.10675760
Cu 1.08683943 17.39074899 16.98384754
Cu 17.34035763 10.69693503 5.86009592
Cu 17.01667694 17.61142763 2.70960324
Cu 13.16095059 7.37035517 13.57560721
Cu 6.68436536 9.64057547 16.73324596
Cu 13.49921740 14.43286573 2.88635713
Cu 8.68671793 6.39914648 17.61601927
Cu 8.81591872 11.49575547 15.92800661
Cu 15.32965973 15.63293881 11.52131091
Cu 16.83587214 14.13778284 15.71803329
Cu 2.90611252 10.22054772 17.80248017
Cu 15.48843407 8.88236067 17.06571939
Cu 12.96998840 18.05335086 0.68179550
Cu 8.24810582 2.30682491 17.06173994
Cu 14.52083962 15.00968814 16.24225435
Cu 7.14536438 13.26475233 15.80533948
Cu 14.32117232 12.85849965 1.19206040
Cu 7.78623565 10.01147633 4.94516239
Cu 14.05966860 17.16827245 2.69110766
Cu 5.06393866 8.55955178 7.91544294
Cu 10.59480208 12.30390185 4.27846138
Cu 7.70870744 15.38640881 6.05711128
Cu 13.85527613 3.52427269 10.79772495
Cu 10.90830192 16.38167489 13.42354855
Cu 7.53922957 5.29889830 11.73065841
Cu 11.81170660 2.44942221 12.79182410
Cu 17.12840207 16.74047829 12.37321109
Cu 10.95011945 14.78918410 3.70548328
Cu 3.79679638 1.76023324 4.10994959
Cu 17.98795552 15.01832521 11.03658806
Cu 16.89372454 11.80835385 1.70601654
Cu 12.61242963 13.65099100 10.47046984
Cu 16.05203045 0.19143116 10.73562596
Cu 13.11443974 0.23183751 4.95831066
Cu 12.27706050 2.49653981 0.09577204
Cu 16.25040688 17.67595118 7.84795858
Cu 0.26771015 2.90458554 17.64789431
Cu 9.81440788 16.31446979 2.02316900
Cu 2.23385952 4.82220753 11.95711424
Cu 16.90185758 0.43779299 5.72995480
Cu 14.45904499 15.39561185 0.94547677
Cu 15.76979664 10.33186595 15.56947398
Cu 14.16621244 12.11874040 9.24557783
Cu 10.86144015 4.60064654 3.18089651
Cu 8.91101729 15.72647675 15.61489852
Cu 12.46571906 2.62967813 9.08398492
Cu 1.41051174 1.16686324 5.32865191
Cu 14.76501866 2.69168110 7.80732285
Cu 17.17470109 2.66906505 14.34168146
Cu 14.33372580 0.87935644 17.03512787
Cu 2.57450268 0.84375268 18.03758974
Cu 15.72169569 4.01789622 12.17717571
Cu 16.28828220 2.20465835 0.26876093
Cu 12.22119068 10.72898547 5.30131570
Cu 13.42782977 10.21622786 16.42101615
Cu 0.85795599 3.26122211 13.33238418
Cu 6.51674017 3.46430937 15.54810190
Cu 10.93863508 7.30152652 7.91266578
Cu 6.75426016 16.68145075 15.46409879
Cu 3.21456700 8.63375305 6.56793018
Cu 16.11243832 5.55257102 10.39633466
Cu 6.54908024 12.63384036 10.17601765
Cu 14.75178596 17.62563750 12.63312179
Cu 11.77677821 4.26138378 5.58785841
Cu 14.18229443 7.36902374 10.70256267
Cu 9.32480101 7.94335892 5.02604421
Cu 6.71853502 7.54706306 17.35866349
Cu 15.27150922 10.89761484 7.54802170
Cu 11.28003171 15.09665371 9.04192534
Cu 15.59903651 6.48357205 17.44879951
Cu 14.28718338 2.75381132 16.00467966
Cu 13.92038122 1.84594592 13.30758925
Cu 10.93675173 8.25086368 14.15708563
Cu 9.20581290 4.51425581 5.31900553
Cu 10.49687951 6.36765243 12.76387859
Cu 17.62725654 7.94841508 16.49293477
Cu 14.67231707 16.02405335 14.01284264
Cu 1.73471189 11.34235910 16.22966189
Cu 12.20896381 4.51336045 7.80468138
Cu 5.09593771 6.73253379 6.76594697
Cu 16.54138542 9.66884093 1.14955915
Cu 0.08554379 6.00660806 11.42019364
Cu 17.56217998 4.58045851 4.24933449
Cu 17.04144245 10.04805403 12.96675175
Cu 12.69633420 16.02003531 4.50003059
Cu 10.03899668 2.33299563 6.40158362
Cu 0.07835913 5.18791914 15.82600129
Cu 6.82062106 9.87974320 8.99951513
Cu 14.66287258 8.86228517 12.52788515
Cu 15.37281262 11.41157419 17.95589496
Cu 2.44966692 4.17446081 18.00593413
Cu 2.08494585 8.16906815 13.17285867
Cu 2.01416083 11.02577788 2.24053029
Cu 6.92843701 17.85282774 17.92257515
Cu 16.36586104 4.62328958 0.59721064
Cu 0.74645083 15.25168325 15.43450327
Cu 4.71951224 10.51908129 13.46823235
Cu 15.98732352 16.81175992 16.85167427
Cu 0.12596927 9.66612097 15.28292329
Cu 18.02706577 0.46410988 13.92059140
Cu 1.35060218 7.34357301 7.37374882
Cu 12.63699320 14.21768820 17.88100705
Cu 16.66693726 9.28805081 10.38882083
Cu 16.54551784 15.77118406 6.26642489
Cu 15.29724235 13.19247022 12.20594677
Cu 11.00187984 10.54173809 15.52464441
Cu 17.93274321 15.59324093 17.67860018
Cu 15.72682445 14.02151415 7.47931747
Cu 2.21732740 8.81101108 16.22411210
Cu 0.10538259 0.56118346 11.68280425
Cu 1.06359538 13.86251712 12.94458927
Cu 12.35873565 9.26373520 9.30351454
Cu 12.39013045 15.15859314 15.07725763
Cu 12.59406286 17.49668335 7.27819773
Cu 11.54632070 17.66671611 3.34696322
Cu 4.73440628 15.95570261 4.44310941
Cu 13.94852542 2.61269898 4.73496760
Cu 12.22641481 1.05641681 16.22200269
Cu 4.60643886 11.59767728 1.52022137
Cu 1.27114396 0.57869455 2.83313471
Cu 0.34237163 12.77983661 14.98154905
Cu 12.01803326 15.56321608 1.86888259
Cu 0.83847786 13.34707709 17.25581545
Cu 8.61857221 16.57188882 17.68019680
Cu 5.53993250 17.66752400 13.77323537
Cu 15.25358880 16.99416019 4.92467553
Cu 2.50785364 14.76927954 17.66656602
Cu 2.50711771 4.69503703 4.85637037
Cu 1.56735402 17.08643866 14.27519202
Cu 16.45658470 6.36841685 15.10969861
Cu 0.50942596 9.08453400 0.08311198
Cu 1.73754133 2.57767963 10.58468467
