500
Final configuration Lattice="19.60000000 0 0  0 19.60000000 0  0 0 19.60000000" Properties=species:S:1:pos:R:3
Pt 0.01198708 0.02769012 0.00545338
Pt 19.56476886 2.05056676 1.90127307
Pt 1.93317995 0.00222979 1.90170527
Pt 1.93886131 1.94988756 19.58006507
Pt 0.06162926 19.57768748 3.88116783
Pt 0.00526959 1.88666390 5.83780932
Pt 1.94255150 19.55886963 5.87969204
Pt 1.88136628 1.93640978 3.94733353
Pt 0.03402203 19.58835108 7.86651397
Pt 0.00225182 2.00746709 9.82253491
Pt 1.94996978 19.59498984 9.78873520
Pt 1.92198353 1.92764943 7.82115251
Pt 0.00233269 0.03976488 11.75432479
Pt 0.01367357 1.98814622 13.69915924
Pt 1.98661703 19.55092715 13.80938566
Pt 1.96284506 1.95645162 11.74809126
Pt 0.02446478 19.54794312 15.63497010
Pt 0.06190464 1.99224362 17.56643239
Pt 1.97336145 19.54757842 17.68073048
Pt 2.01038928 1.92281359 15.66157187
Pt 19.59951365 3.96835555 0.02766127
Pt 19.59668851 5.82212566 1.89228783
Pt 1.94778026 3.87620899 1.95449185
Pt 2.02591949 5.86145214 0.01142389
Pt 19.57051071 3.89496441 3.95503673
Pt 19.56286118 5.82535334 5.86041152
Pt 1.93870515 3.99478071 5.83985699
Pt 1.93991617 5.84643593 3.91021338
Pt 19.55221782 3.78906609 7.76118321
Pt 19.57515299 5.79892683 9.82131420
Pt 1.99097310 3.92081904 9.78438313
Pt 1.90952945 5.80890887 7.87110185
Pt 19.54471443 3.88132429 11.74856334
Pt 19.57716562 5.84627295 13.79663934
Pt 1.91868554 3.91682116 13.70098965
Pt 1.93672438 5.86444479 11.75314638
Pt 19.56021065 3.86417937 15.71304656
Pt 19.52696196 5.84030988 17.71141740
Pt 1.96401911 3.93983709 17.68010732
Pt 1.88633788 5.85972869 15.75425320
Pt 19.56213580 7.92631795 0.01787614
Pt 19.58901217 9.86031490 1.97924364
Pt 1.91482416 7.79808153 1.90727036
Pt 2.01859231 9.78351847 0.00189078
Pt 0.02000115 7.77832271 3.91629202
Pt 0.02604992 9.83044963 5.91212369
Pt 1.98278632 7.81622273 5.88685614
Pt 1.94359321 9.79418467 3.93975917
Pt 19.57760869 7.86393745 7.77135618
Pt 19.49022871 9.74012646 9.84232063
Pt 1.92790582 7.79563054 9.76252483
Pt 1.91028463 9.74871331 7.85898935
Pt 0.03387197 7.76712136 11.77186699
Pt 0.05860857 9.78203037 13.80034158
Pt 1.91000843 7.81767791 13.72502239
Pt 1.95252773 9.71346226 11.72153975
Pt 0.02268466 7.87093165 15.80447426
Pt 0.02370372 9.81602158 17.69060599
Pt 1.84813254 7.84991591 17.67955050
Pt 1.99216458 9.72347375 15.67891933
Pt 19.51966738 11.90091437 0.04102924
Pt 0.02268514 13.77642367 2.00199949
Pt 1.93775908 11.77131901 1.90778404
Pt 1.94969781 13.78766399 0.04897322
Pt 0.02831347 11.78547800 3.89911717
Pt 0.04205277 13.77287821 5.91349841
Pt 1.96634319 11.78819650 5.90047273
Pt 2.00521235 13.69198261 3.90223878
Pt 19.57730737 11.76050065 7.79961999
Pt 19.54205314 13.75649025 9.68708935
Pt 1.97371149 11.68427450 9.77809933
Pt 1.93839390 13.67823046 7.79580991
Pt 19.57116407 11.72789827 11.69057913
Pt 0.00444162 13.68331323 13.68354496
Pt 1.92737603 11.73947229 13.73988239
Pt 1.96037423 13.73972783 11.80900121
Pt 0.06273021 11.76446509 15.72927448
Pt 0.03015203 13.70985665 17.60751465
Pt 2.02389948 11.78240636 17.66094618
Pt 1.99125545 13.67234234 15.68674518
Pt 0.02971631 15.62898597 0.00862360
Pt 19.54399068 17.63448307 1.84181520
Pt 1.95461850 15.67048026 1.99206102
Pt 2.06717888 17.55974550 0.00322420
Pt 19.56239527 15.76265189 3.85972646
Pt 0.00048635 17.68994222 5.93429040
Pt 2.00009931 15.67722281 5.80510807
Pt 1.94525606 17.61631854 3.81172221
Pt 0.02517001 15.77617137 7.84151470
Pt 0.04215182 17.68335592 9.89731873
Pt 1.94765280 15.64592577 9.85053524
Pt 2.02973084 17.69977490 7.87639596
Pt 19.56147768 15.69763647 11.75821974
Pt 0.01358876 17.69260741 13.69094575
Pt 1.94674358 15.64493207 13.71870503
Pt 2.01391051 17.69545580 11.80083988
Pt 0.00118622 15.74027932 15.67757247
Pt 19.58187813 17.58752014 17.69256515
Pt 1.99029624 15.65725882 17.57225204
Pt 2.04423329 17.58596179 15.67907670
Pt 3.98117462 19.54942301 19.54985595
Pt 3.98864938 1.88932636 1.88593094
Pt 5.97585278 19.59525382 1.98486935
Pt 5.89852978 1.92644285 19.57782292
Pt 3.87634680 0.04605700 3.87298078
Pt 3.83364156 1.91222380 5.93566319
Pt 5.82815937 0.00744762 5.93772498
Pt 5.87689802 1.92198301 3.94987946
Pt 3.89539947 0.04520328 7.87631504
Pt 3.95284063 2.00021376 9.81933844
Pt 5.80480351 0.00824630 9.89584295
Pt 5.84971415 1.98275030 7.81333481
Pt 3.87158722 0.04222042 11.76944256
Pt 3.90589795 1.96350534 13.73591856
Pt 5.80723894 0.03823990 13.73417484
Pt 5.87123479 2.03759727 11.74077963
Pt 3.93930836 19.55023549 15.69987715
Pt 3.91665009 1.97373705 17.65130691
Pt 5.88705453 19.51017518 17.61681521
Pt 5.89943035 2.04268933 15.76037328
Pt 3.87723122 3.83848453 0.00806622
Pt 3.96367508 5.77049009 1.98768917
Pt 5.95966602 3.83217228 2.01527439
Pt 5.83638726 5.79965582 0.04840624
Pt 3.88765625 3.76205029 3.93686743
Pt 3.94899491 5.83807498 5.86267767
Pt 5.93244832 3.92375554 5.92014191
Pt 5.89344455 5.87499643 3.94575404
Pt 3.90431730 3.97389684 7.78221967
Pt 3.89532053 5.90076273 9.76481539
Pt 5.85071072 4.03385168 9.73945919
Pt 5.90394826 5.89482770 7.84434169
Pt 4.00803242 3.89195981 11.75776355
Pt 3.89451641 5.79865848 13.77960927
Pt 5.89131837 3.97949629 13.78274119
Pt 5.90228999 5.97244540 11.77445448
Pt 3.85268373 3.92357658 15.64323625
Pt 3.96131636 5.82633934 17.69463688
Pt 5.87375718 3.87719655 17.82220386
Pt 5.90428311 5.89767383 15.69992791
Pt 4.01310280 7.79662666 0.14660537
Pt 3.86844833 9.77707321 2.03396580
Pt 5.82877643 7.79535195 2.03015045
Pt 5.86928244 9.85156064 0.16064133
Pt 3.85571160 7.81525497 3.92925304
Pt 3.90384011 9.74346115 5.90992576
Pt 5.90010510 7.87061919 5.88245141
Pt 5.89783337 9.78004392 3.96211086
Pt 3.96156735 7.78851374 7.79087323
Pt 3.85466251 9.72356492 9.79719304
Pt 5.92584147 7.77271730 9.76734298
Pt 5.93316522 9.69587888 7.82582912
Pt 3.91466060 7.75944536 11.83855706
Pt 3.92244122 9.75600705 13.69925837
Pt 5.91729948 7.81905600 13.68552166
Pt 5.88693501 9.80829595 11.65959695
Pt 3.89886598 7.80496308 15.64642479
Pt 3.87144273 9.71897440 17.67694545
Pt 5.87730043 7.79066302 17.74370391
Pt 5.89117186 9.75314204 15.62600019
Pt 3.84909426 11.82547398 0.07720814
Pt 3.90008899 13.74399403 1.99491476
Pt 5.85461520 11.84376731 2.02030516
Pt 5.89556615 13.75186768 0.05869802
Pt 3.83093534 11.74733894 3.88629848
Pt 3.93506504 13.67409007 5.92352514
Pt 5.92162062 11.65536729 5.88890111
Pt 5.83087849 13.74780942 3.96511170
Pt 3.91300792 11.68739276 7.82696402
Pt 3.93143199 13.61438380 9.72522330
Pt 5.94180449 11.67011520 9.75153505
Pt 5.93233664 13.57391231 7.80486884
Pt 3.85184593 11.69741346 11.77337533
Pt 3.86951876 13.70422499 13.71340472
Pt 5.77642900 11.72771342 13.71401087
Pt 5.82434576 13.64749469 11.79989410
Pt 3.95557156 11.81130078 15.61055287
Pt 3.97816312 13.66592936 17.62458559
Pt 5.87364516 11.67161534 17.58720291
Pt 5.92285357 13.75127316 15.70762356
Pt 3.97237489 15.62334539 0.01760200
Pt 3.97910395 17.67274145 1.97809004
Pt 5.87547803 15.77234370 1.96204111
Pt 5.88649917 17.62159952 0.06409557
Pt 3.93921697 15.78382118 3.91530194
Pt 3.86788968 17.62453207 5.87093557
Pt 5.86005498 15.68613523 5.93173637
Pt 5.85605881 17.63501907 4.01447488
Pt 3.80039517 15.53449641 7.85223367
Pt 3.88613530 17.57873716 9.79703043
Pt 5.84561201 15.59002154 9.72408447
Pt 5.73904623 17.60267501 7.88779496
Pt 3.91458040 15.64753011 11.75181173
Pt 3.96030125 17.61243164 13.67088699
Pt 5.88339305 15.62814407 13.73191868
Pt 5.89373767 17.59303748 11.70671865
Pt 3.94887523 15.66184410 15.71580210
Pt 3.99831798 17.62154344 17.64903757
Pt 5.94223879 15.63627316 17.59629632
Pt 5.90228419 17.63940649 15.70530509
Pt 7.84541916 19.55707998 19.49680026
Pt 7.87102425 1.90679837 1.95441782
Pt 9.75624109 19.55197886 2.03793853
Pt 9.83361574 1.89473382 0.06275645
Pt 7.81939956 0.04812603 3.93296992
Pt 7.89363560 1.90932347 5.91865051
Pt 9.81146868 0.02117810 5.91424689
Pt 9.81567269 1.95964593 3.88838073
Pt 7.79641022 0.05599945 7.88689729
Pt 7.79418009 2.05409166 9.85249409
Pt 9.74302618 0.02795800 9.84583872
Pt 9.81370231 2.02890564 7.87475937
Pt 7.77959314 19.59376983 11.69280024
Pt 7.83104614 1.92064776 13.71799576
Pt 9.76851877 19.58640607 13.60413236
Pt 9.81348812 2.00806112 11.74757354
Pt 7.81428714 0.03294452 15.71996197
Pt 7.92681326 1.94269854 17.62159731
Pt 9.86053108 19.53152960 17.64339976
Pt 9.84139537 1.94363113 15.62364592
Pt 7.85634239 3.89960276 0.11117612
Pt 7.83981909 5.90736134 2.04150886
Pt 9.80690593 3.96003140 1.94251809
Pt 9.72782222 5.86351086 19.59351112
Pt 7.92858834 3.88042449 3.97180078
Pt 7.96850788 5.93286585 5.83963084
Pt 9.88514652 3.90281362 5.84261036
Pt 9.89266436 5.93837938 3.90127142
Pt 7.91774983 3.93815569 7.77018002
Pt 7.88213010 5.90955725 9.75358394
Pt 9.81634339 4.01625339 9.80701136
Pt 9.82912900 5.90510929 7.73810985
Pt 7.73988941 4.02413197 11.77950222
Pt 7.91246819 5.90130260 13.80599301
Pt 9.76957921 3.91756200 13.78158059
Pt 9.75819098 5.79753082 11.86159452
Pt 7.87059559 3.97410983 15.75004124
Pt 7.85171667 5.90271565 17.76930005
Pt 9.76021604 3.93443608 17.70408379
Pt 9.81806548 5.98115559 15.78563764
Pt 7.81530513 7.81535405 0.07504171
Pt 7.79188936 9.77105212 2.01925854
Pt 9.78163600 7.82567556 1.88019348
Pt 9.74542271 9.88467503 0.03809442
Pt 7.85384955 7.89943961 3.93382343
Pt 7.87578625 9.84524099 5.82977801
Pt 9.84562464 7.89511111 5.74635406
Pt 9.82169987 9.80070759 3.86534482
Pt 7.90604705 7.79085297 7.78438555
Pt 7.92686951 9.73704129 9.75659510
Pt 9.84956996 7.85120590 9.80519255
Pt 9.95168007 9.74485523 7.74881163
Pt 7.86674202 7.84231270 11.74328121
Pt 7.81436265 9.83488082 13.69453429
Pt 9.79110994 7.89407601 13.70203832
Pt 9.82453241 9.73437271 11.79661157
Pt 7.87904135 7.92733856 15.70800527
Pt 7.83951089 9.84249648 17.66481459
Pt 9.67267827 7.87149535 17.71804725
Pt 9.79458782 9.80565641 15.64030818
Pt 7.78501869 11.76770777 0.07990893
Pt 7.76903584 13.83034447 1.98616362
Pt 9.74483028 11.72082173 1.91720236
Pt 9.76198379 13.73931530 19.57400688
Pt 7.87939128 11.77408136 3.95996299
Pt 7.87868282 13.73316536 5.87390797
Pt 9.87142058 11.86681362 5.81492717
Pt 9.82887071 13.72934492 3.78390492
Pt 7.95026351 11.73307923 7.81080389
Pt 7.76807156 13.68423338 9.78122894
Pt 9.86126806 11.73598471 9.82415481
Pt 9.79498766 13.70590264 7.86743171
Pt 7.83423057 11.75403589 11.69033865
Pt 7.80714869 13.66864711 13.68312176
Pt 9.73185081 11.75517372 13.65632111
Pt 9.81264613 13.78188845 11.78617010
Pt 7.79138216 11.74855704 15.60679639
Pt 7.75540078 13.60541053 17.60228270
Pt 9.80781423 11.80320786 17.59382710
Pt 9.77383480 13.72342723 15.65731896
Pt 7.80886064 15.62797969 19.57662103
Pt 7.86558556 17.59427176 1.93608701
Pt 9.76845002 15.67376752 1.91689153
Pt 9.81861748 17.57180512 19.58817901
Pt 7.79596857 15.72042614 3.94518150
Pt 7.80759385 17.65330189 5.90498236
Pt 9.74272022 15.69794337 5.86127885
Pt 9.83959910 17.60234813 3.99664133
Pt 7.81028530 15.61589460 7.81032225
Pt 7.85114699 17.63342714 9.75620306
Pt 9.70639172 15.66043555 9.83940987
Pt 9.73153291 17.56841267 7.85985139
Pt 7.79629033 15.59716712 11.77329386
Pt 7.79231129 17.66962769 13.68147546
Pt 9.75273512 15.65915246 13.68905391
Pt 9.79630507 17.57448069 11.70683378
Pt 7.90171486 15.73772903 15.65881403
Pt 7.86316819 17.57096517 17.68434607
Pt 9.78958809 15.65828475 17.59587498
Pt 9.80616488 17.65354919 15.60393015
Pt 11.70018352 19.58099798 0.05943392
Pt 11.78088418 2.06740180 2.03837764
Pt 13.65228479 0.01070739 1.96581757
Pt 13.70644409 1.93906427 0.03298557
Pt 11.72865481 0.00294167 3.98759859
Pt 11.82259991 1.93928815 5.89255195
Pt 13.73305158 19.56585288 5.88134544
Pt 13.75239505 1.91778189 3.91330176
Pt 11.77259580 0.02325212 7.89839542
Pt 11.74493295 1.98732738 9.84169972
Pt 13.64214503 0.03036943 9.88994341
Pt 13.67725716 2.00634675 7.82086420
Pt 11.79447560 19.52033508 11.72911716
Pt 11.77692584 1.94019827 13.66655349
Pt 13.69593648 0.01155984 13.68962625
Pt 13.65406784 1.99599977 11.75697436
Pt 11.75059573 19.53596557 15.68036678
Pt 11.72579832 1.97585887 17.56603423
Pt 13.62602691 0.04996415 17.64571242
Pt 13.70313919 1.90379212 15.58626105
Pt 11.73679306 3.94804253 19.54983301
Pt 11.74715176 5.83815193 1.92853725
Pt 13.81763223 3.96936766 1.88438449
Pt 13.71248800 5.91566413 19.57017722
Pt 11.81323392 4.00875032 3.89187964
Pt 11.85292235 5.92342855 5.79758621
Pt 13.83908343 3.89527537 5.83789252
Pt 13.78823980 5.91401308 3.89401631
Pt 11.80268241 3.97643248 7.82084274
Pt 11.76374004 5.91454747 9.77600793
Pt 13.77774496 3.90449428 9.78442868
Pt 13.72597933 5.90268183 7.86020452
Pt 11.79033242 4.01126652 11.83353393
Pt 11.68930198 5.88852458 13.82684248
Pt 13.72459559 3.98784467 13.75069893
Pt 13.67907998 5.94440024 11.72489708
Pt 11.73535948 3.93747790 15.74907100
Pt 11.66935238 5.89074066 17.68666135
Pt 13.71362024 3.85442655 17.65604563
Pt 13.73074766 5.85609247 15.60300291
Pt 11.72982123 7.87517580 0.00982666
Pt 11.78731626 9.82235423 1.90337154
Pt 13.71889274 7.83517097 1.98501115
Pt 13.71690421 9.80373999 19.56130666
Pt 11.84568770 7.90248941 3.88474613
Pt 11.86764178 9.77966454 5.86284546
Pt 13.78251516 7.88401528 5.79545278
Pt 13.64795063 9.86891268 3.91238455
Pt 11.83144441 7.85466483 7.73535563
Pt 11.77961953 9.78881767 9.77474985
Pt 13.72082797 7.87190429 9.74199897
Pt 13.75889152 9.82265228 7.78760027
Pt 11.81755370 7.96294911 11.82259993
Pt 11.71696818 9.82003197 13.69172808
Pt 13.77304645 7.85673074 13.71613233
Pt 13.72540807 9.87808366 11.77068995
Pt 11.78445482 7.83585731 15.77782625
Pt 11.68015075 9.80684665 17.65687267
Pt 13.71023914 7.85644085 17.70185244
Pt 13.64740645 9.78279848 15.67966656
Pt 11.76556577 11.81425907 19.58302425
Pt 11.80569512 13.72586856 1.98743783
Pt 13.77527045 11.80534236 1.96529521
Pt 13.73567555 13.72680495 19.55647634
Pt 11.78493830 11.80082669 3.93790128
Pt 11.81416816 13.79363594 5.84693913
Pt 13.74773658 11.85754036 5.87907855
Pt 13.72733471 13.82965927 3.95904771
Pt 11.76108466 11.82799359 7.80830007
Pt 11.76208722 13.76215808 9.87085760
Pt 13.73500803 11.84967376 9.83684260
Pt 13.73119848 13.71339914 7.80605248
Pt 11.79224124 11.76349943 11.73156250
Pt 11.73911442 13.69847113 13.69563187
Pt 13.74196277 11.74892569 13.70738416
Pt 13.74173901 13.72522364 11.80574167
Pt 11.72189073 11.71740272 15.61673088
Pt 11.76588917 13.78151379 17.57722289
Pt 13.71115574 11.77802311 17.65138226
Pt 13.68390615 13.79574516 15.70249568
Pt 11.73096530 15.67296918 0.03195935
Pt 11.69769248 17.65614660 2.04968521
Pt 13.72640129 15.68910665 2.02522247
Pt 13.72486509 17.61319102 19.59176164
Pt 11.74583251 15.74890704 3.86585026
Pt 11.82768588 17.63776070 5.95859151
Pt 13.72178568 15.75646535 5.89933709
Pt 13.74174148 17.60626858 3.93172217
Pt 11.74213149 15.65341399 7.92309091
Pt 11.77192573 17.58655677 9.77636974
Pt 13.79005310 15.68010087 9.77062384
Pt 13.76242327 17.68987768 7.95819982
Pt 11.85318074 15.70402881 11.78479775
Pt 11.77437972 17.62895528 13.67661818
Pt 13.76180746 15.69323765 13.70443759
Pt 13.85397060 17.58733068 11.82160093
Pt 11.71345525 15.63456497 15.63184973
Pt 11.74642708 17.55567993 17.63556052
Pt 13.71256044 15.73332298 17.61495740
Pt 13.70754935 17.67556159 15.65620007
Pt 15.63432564 0.07348224 19.56252834
Pt 15.67337645 1.99704745 1.92432717
Pt 17.66572095 19.53695005 1.93871491
Pt 17.60186027 1.91838764 0.02113329
Pt 15.68330059 0.03512786 3.86418998
Pt 15.67197592 1.88551468 5.90188783
Pt 17.65228929 0.02881066 5.86597841
Pt 17.61474252 1.96270920 3.88680490
Pt 15.71646944 0.03235951 7.84049307
Pt 15.68024586 1.98054238 9.84850444
Pt 17.62583716 0.03405242 9.84766024
Pt 17.63757184 1.92448049 7.83167708
Pt 15.64440817 0.01173325 11.82378614
Pt 15.69197222 1.99076052 13.64458172
Pt 17.59910231 19.59777021 13.66089487
Pt 17.59727939 2.04773946 11.79660988
Pt 15.65062273 0.05407127 15.65843833
Pt 15.67712374 1.95588831 17.58331578
Pt 17.64316502 0.07587886 17.58832912
Pt 17.66748137 1.87756838 15.57546750
Pt 15.70177162 3.84627163 19.50289738
Pt 15.68309502 5.95002351 1.82492429
Pt 17.64731043 3.92415816 1.96403172
Pt 17.64701618 5.83759361 19.59810922
Pt 15.68697977 3.88527573 3.92948267
Pt 15.69021208 5.92749130 5.90441034
Pt 17.54662661 3.95739267 5.90862119
Pt 17.56230084 5.87945728 3.89978037
Pt 15.69956448 3.94158210 7.80472801
Pt 15.71257092 5.92808144 9.81865703
Pt 17.62368603 3.94978012 9.83381691
Pt 17.61722713 5.81220887 7.77975229
Pt 15.59000408 3.95739453 11.75384137
Pt 15.71446729 5.91964423 13.73575509
Pt 17.63594348 3.93988362 13.67937518
Pt 17.58752306 5.90606065 11.74742174
Pt 15.63591648 3.88852409 15.61087419
Pt 15.70855923 5.87463353 17.58112557
Pt 17.68308520 3.88678232 17.60077596
Pt 17.62260396 5.88513084 15.64109000
Pt 15.75041626 7.90631294 19.54089570
Pt 15.65775563 9.77422988 1.89099839
Pt 17.68059926 7.85872013 1.93173378
Pt 17.72544476 9.83557915 0.00792947
Pt 15.69290246 7.84954242 3.90809756
Pt 15.63937108 9.79457008 5.85596562
Pt 17.57382438 7.89504416 5.89295423
Pt 17.62431938 9.82932278 3.92081355
Pt 15.68804700 7.91433224 7.81782341
Pt 15.65674679 9.80190884 9.81849372
Pt 17.61374515 7.80362581 9.85381427
Pt 17.60017874 9.84602813 7.87066502
Pt 15.61744344 7.86334340 11.75891388
Pt 15.69870071 9.85596323 13.73474189
Pt 17.71700048 7.85614619 13.76159487
Pt 17.62826159 9.75979111 11.74891545
Pt 15.70346191 7.88176015 15.68727963
Pt 15.62817193 9.83248101 17.62767358
Pt 17.66945134 7.92109473 17.65753182
Pt 17.61363851 9.80429533 15.64497714
Pt 15.70153523 11.66202512 19.59443137
Pt 15.63077078 13.70918683 1.99304077
Pt 17.62571623 11.84326252 1.95014223
Pt 17.50187812 13.69068998 19.51766348
Pt 15.66085940 11.79579416 3.91820957
Pt 15.60169730 13.78502738 5.86754661
Pt 17.59434532 11.85387628 5.84152121
Pt 17.55995584 13.76902286 3.96267315
Pt 15.67213638 11.75711870 7.78752499
Pt 15.68925368 13.78201540 9.75950011
Pt 17.62147364 11.80819355 9.75704906
Pt 17.61392152 13.79131646 7.77437181
Pt 15.69609051 11.79190254 11.77985524
Pt 15.71202545 13.74850721 13.80521403
Pt 17.68526262 11.77483428 13.69700247
Pt 17.66345869 13.72403283 11.74392534
Pt 15.67339906 11.82255720 15.63806712
Pt 15.59563823 13.73947648 17.59881240
Pt 17.69513583 11.78530299 17.63319262
Pt 17.63381644 13.77954629 15.72793513
Pt 15.72775227 15.70275669 0.04767230
Pt 15.68660770 17.67782457 2.04674590
Pt 17.59026366 15.62260001 1.93314372
Pt 17.54945965 17.68556636 19.55199220
Pt 15.68159714 15.67923351 3.90720714
Pt 15.67714329 17.67047733 5.86514492
Pt 17.66090921 15.72221792 5.85058311
Pt 17.63094769 17.68988564 3.91864023
Pt 15.75565373 15.83109486 7.81216662
Pt 15.79005091 17.62631185 9.83002413
Pt 17.68745888 15.69359047 9.76445884
Pt 17.67567410 17.71937602 7.86758150
Pt 15.71491845 15.69300844 11.78202127
Pt 15.63972033 17.63820047 13.84804875
Pt 17.68345795 15.66567136 13.78434804
Pt 17.60501083 17.64922267 11.84917193
Pt 15.64606086 15.73220642 15.65486959
Pt 15.66415887 17.68247648 17.59242648
Pt 17.61638209 15.69369949 17.61178397
Pt 17.60697727 17.61631329 15.67628410
