500
Final configuration Lattice="19.60000000 0 0  0 19.60000000 0  0 0 19.60000000" Properties=species:S:1:pos:R:3
Pt 0.00160703 19.56086961 0.01957273
Pt 0.00131886 2.02909708 1.85775800
Pt 1.94080870 19.59275251 1.92165535
Pt 1.89035394 1.92416167 19.54969940
Pt 0.06883523 19.57884527 3.89603048
Pt 19.57983384 1.91163973 5.85507493
Pt 1.92477944 19.56340494 5.87587833
Pt 1.88237828 1.91221585 3.94102842
Pt 0.01709216 19.55987598 7.84493117
Pt 0.03931603 2.01780562 9.77310037
Pt 1.95042304 0.04247729 9.78316338
Pt 1.93067435 1.99925334 7.77200255
Pt 0.02473937 0.10323675 11.76086726
Pt 19.59343095 1.98840016 13.70987729
Pt 2.01955995 19.52290009 13.77256957
Pt 1.99520988 1.92610393 11.75741955
Pt 19.57106182 19.59453536 15.59327663
Pt 0.04803100 2.04993001 17.59164119
Pt 1.94668707 19.55015051 17.70302163
Pt 2.00002542 1.90482980 15.69416946
Pt 0.01339153 3.97463580 0.02572343
Pt 0.01055942 5.80900531 1.91413461
Pt 1.96626572 3.88525021 1.93632961
Pt 2.00041018 5.92150753 0.00765869
Pt 19.58829311 3.91655903 3.93920064
Pt 19.55422203 5.89950867 5.82833757
Pt 1.92202075 4.01700743 5.76280862
Pt 1.94301388 5.85757610 3.89509125
Pt 19.54914035 3.82693724 7.75703512
Pt 19.59834197 5.72866332 9.78974459
Pt 2.02633974 3.93453441 9.76964122
Pt 1.88693587 5.80351799 7.83060055
Pt 19.59175729 3.90399091 11.76623547
Pt 19.56245619 5.80021267 13.77699840
Pt 1.92563689 3.90641921 13.71040156
Pt 1.96430534 5.93185906 11.74033080
Pt 19.55405090 3.88282266 15.71590080
Pt 19.53061968 5.84389694 17.69308674
Pt 1.98087675 3.95686011 17.65561067
Pt 1.93154961 5.85344818 15.69904252
Pt 19.53886463 7.88743586 19.58965298
Pt 0.01197571 9.89802589 2.00650175
Pt 1.93225105 7.75567146 1.94776537
Pt 2.01463316 9.76365428 0.03693944
Pt 0.05931506 7.79148068 3.92752132
Pt 0.02550722 9.80007177 5.86243440
Pt 2.02479523 7.85254284 5.87329725
Pt 1.97371448 9.81824998 3.92425077
Pt 19.59924829 7.81646888 7.79107789
Pt 19.51399485 9.81009462 9.83394125
Pt 1.90435569 7.77351789 9.76234830
Pt 1.93557521 9.76433509 7.81795551
Pt 0.00417274 7.76896547 11.78617321
Pt 0.05960251 9.81573710 13.76916352
Pt 1.94666077 7.80436976 13.74392628
Pt 1.97639023 9.66175506 11.77329057
Pt 19.56405603 7.85773933 15.72304994
Pt 19.58746594 9.81880040 17.67945525
Pt 1.82365191 7.89166353 17.61058167
Pt 2.00226746 9.77884372 15.68787403
Pt 19.51674735 11.82754934 0.01943507
Pt 0.03706783 13.70712309 1.98379583
Pt 1.97099714 11.76677662 1.89266292
Pt 1.94703578 13.77133162 19.59088290
Pt 0.04687517 11.79866494 3.92005977
Pt 0.06857192 13.72720454 5.88617308
Pt 1.98284870 11.74992345 5.88733411
Pt 2.02326729 13.67508401 3.89941398
Pt 0.00075171 11.78536820 7.78593134
Pt 19.52825082 13.70438261 9.69245360
Pt 1.99313945 11.69717426 9.79024344
Pt 1.95445065 13.68999775 7.80543436
Pt 19.58671972 11.74080589 11.72550732
Pt 0.02069266 13.66730747 13.73007607
Pt 1.94599730 11.76797783 13.72509896
Pt 1.97328076 13.76303636 11.83847709
Pt 0.13017754 11.77699162 15.70342410
Pt 0.03581687 13.68980152 17.60026632
Pt 2.00360054 11.78721087 17.61738303
Pt 2.04299625 13.69375994 15.70178146
Pt 0.06548540 15.62299206 19.59008305
Pt 19.57646963 17.62452462 1.89467537
Pt 1.94433251 15.61044131 2.04810960
Pt 1.98754530 17.57926347 0.01507611
Pt 19.54854234 15.67347909 3.89417044
Pt 19.57034990 17.64011133 5.90169777
Pt 1.99735403 15.68706895 5.78068617
Pt 1.96320008 17.60236307 3.78504649
Pt 0.01963764 15.72199002 7.85429290
Pt 0.04638336 17.67606957 9.88513527
Pt 1.98089404 15.62313582 9.86012473
Pt 1.97239089 17.64504135 7.84945195
Pt 19.54439122 15.68218897 11.81723050
Pt 0.02408471 17.64339491 13.68218522
Pt 1.95652107 15.68251267 13.75864983
Pt 2.00931906 17.67605685 11.78712459
Pt 0.02684999 15.72288804 15.66799610
Pt 19.53771640 17.62519748 17.68773019
Pt 1.99318920 15.68240159 17.61511371
Pt 2.05621620 17.62632833 15.69713347
Pt 3.96866777 19.57058621 0.00604113
Pt 3.95614838 1.91775722 1.90845666
Pt 5.93390516 0.00226008 2.02312435
Pt 5.85292735 1.94757661 19.58194964
Pt 3.89134264 0.03677843 3.91551948
Pt 3.82514612 1.99135640 5.93294342
Pt 5.78779494 19.59321037 5.93516400
Pt 5.89274710 1.97781366 3.98616771
Pt 3.83853112 0.00681775 7.88379546
Pt 3.94904510 2.01165161 9.81294759
Pt 5.81330864 19.56300682 9.86044211
Pt 5.79776904 1.95737243 7.85249330
Pt 3.91934001 19.59773992 11.75703560
Pt 3.91127823 1.98182114 13.76865904
Pt 5.82835207 0.01602024 13.73583742
Pt 5.86994493 2.04108184 11.75352327
Pt 4.00847904 19.51795562 15.69327655
Pt 3.93984042 1.94758476 17.62610833
Pt 5.90423827 19.51411560 17.64721335
Pt 5.90021331 2.00223790 15.77859025
Pt 3.89023865 3.91591870 19.59300510
Pt 3.95648851 5.80285304 1.96547187
Pt 5.98130452 3.84605846 1.99989304
Pt 5.82931632 5.82279140 0.05457456
Pt 3.86994124 3.78021633 3.91431152
Pt 3.95980021 5.87210020 5.85922254
Pt 5.95835609 3.96904913 5.89250408
Pt 5.88739108 5.89921541 3.91415585
Pt 3.91560773 3.96387076 7.76025271
Pt 3.91985581 5.92038390 9.73405422
Pt 5.92150101 3.97586593 9.74277513
Pt 5.92304831 5.86949383 7.82930421
Pt 3.98570346 3.89422440 11.74727538
Pt 3.92025393 5.83408879 13.78075421
Pt 5.87614890 3.95537684 13.75571530
Pt 5.93486724 5.97345659 11.74903166
Pt 3.88078202 3.93816610 15.66322615
Pt 3.93078084 5.87525362 17.67925803
Pt 5.88147341 3.88454960 17.80957199
Pt 5.95475446 5.89373804 15.70375578
Pt 4.00412452 7.80239262 0.12681119
Pt 3.86961324 9.77427005 1.99131703
Pt 5.85906600 7.82312914 2.04370148
Pt 5.85833784 9.80507804 0.09264902
Pt 3.87028873 7.82729705 3.94815167
Pt 3.92212838 9.78249125 5.91300239
Pt 5.88575765 7.85956402 5.86956940
Pt 5.87819369 9.81362127 3.93049117
Pt 3.94215642 7.80469519 7.75955927
Pt 3.84374057 9.68874949 9.77812820
Pt 5.93035356 7.83539951 9.77856343
Pt 5.91125526 9.69271946 7.83848533
Pt 4.00704871 7.78072070 11.78816410
Pt 3.97716399 9.76742123 13.75286329
Pt 5.93648816 7.85504460 13.70448540
Pt 5.90130608 9.82138488 11.69421922
Pt 3.88569437 7.80765745 15.70261755
Pt 3.91267846 9.70086623 17.72388351
Pt 5.93480234 7.79057157 17.72305366
Pt 5.93649701 9.74532691 15.67323946
Pt 3.84549154 11.80312413 0.03001451
Pt 3.85285859 13.73372454 1.97800994
Pt 5.83303545 11.85017220 1.97053614
Pt 5.86111629 13.75765833 0.04355264
Pt 3.90271315 11.75913749 3.86632524
Pt 3.92461392 13.68366120 5.88845223
Pt 5.90155372 11.73320676 5.88916514
Pt 5.86918455 13.79481496 3.92306026
Pt 3.92926240 11.69580555 7.81569350
Pt 3.89404796 13.63124247 9.74817361
Pt 5.92932701 11.60916266 9.74420899
Pt 5.90465500 13.60019905 7.81766004
Pt 3.89305819 11.71693068 11.80775843
Pt 3.94033741 13.69732427 13.73171721
Pt 5.83237608 11.75199724 13.68450255
Pt 5.89168255 13.69240105 11.76023544
Pt 3.95973391 11.77989367 15.62506309
Pt 3.98576271 13.70040500 17.61929920
Pt 5.84484381 11.65773667 17.66157258
Pt 5.94903506 13.76989838 15.68964788
Pt 3.91129679 15.67464785 0.07021991
Pt 3.96886317 17.66441692 2.03081208
Pt 5.81430914 15.72497731 2.01003875
Pt 5.84709796 17.63951922 0.13029943
Pt 3.94371263 15.79717657 3.94772702
Pt 3.82113792 17.64620898 5.83780436
Pt 5.88818265 15.66710387 5.94907596
Pt 5.85697500 17.66477500 4.02987757
Pt 3.80714784 15.56552033 7.79915416
Pt 3.87323368 17.57810975 9.81792322
Pt 5.83796490 15.57861629 9.71730427
Pt 5.68463119 17.62488683 7.89392324
Pt 3.92568096 15.64531318 11.76774267
Pt 3.98341766 17.61863897 13.67029486
Pt 5.90051776 15.64264785 13.71540684
Pt 5.87378858 17.55891166 11.72579461
Pt 3.95508268 15.68256742 15.77804285
Pt 3.97423380 17.67018263 17.69402358
Pt 5.96273025 15.63819400 17.62735894
Pt 5.92195710 17.63372475 15.75662476
Pt 7.85364985 19.52461535 19.55350255
Pt 7.92076241 1.95158556 1.94854681
Pt 9.75682385 19.55329374 2.06883510
Pt 9.81610686 1.88795588 0.02224704
Pt 7.81738829 0.03321317 3.90421262
Pt 7.85002186 1.87257850 5.95693832
Pt 9.77912807 19.56061862 5.93701169
Pt 9.84538546 1.92315594 3.89366382
Pt 7.76688183 0.00514687 7.90801296
Pt 7.83106638 1.98789567 9.84990841
Pt 9.72770876 0.02067764 9.81480916
Pt 9.80391597 2.03525398 7.84157472
Pt 7.78722061 19.57702761 11.71044880
Pt 7.83103029 1.92270831 13.69527895
Pt 9.75282745 0.02253238 13.61200922
Pt 9.83341052 2.01740498 11.76379904
Pt 7.84802576 0.07380245 15.71676567
Pt 7.87187060 1.93826813 17.61789912
Pt 9.86306343 19.53384702 17.68706623
Pt 9.85277465 1.93683899 15.69260520
Pt 7.86240336 3.92444954 0.04104525
Pt 7.84765599 5.90778156 1.97091601
Pt 9.77629922 3.94170534 1.94521014
Pt 9.73704779 5.87494797 19.54846703
Pt 7.92283082 3.93927217 3.91731250
Pt 7.94309797 5.88744944 5.86074871
Pt 9.83659613 3.92286405 5.80094951
Pt 9.91477847 5.96604058 3.84553693
Pt 7.83765425 3.87629314 7.81058337
Pt 7.85260541 5.89993277 9.75609343
Pt 9.80131256 4.02568307 9.82152357
Pt 9.79541253 5.87078144 7.76615123
Pt 7.76662267 4.02556584 11.81651525
Pt 7.91743654 5.84900192 13.79986618
Pt 9.77170077 3.90695907 13.80794422
Pt 9.81355457 5.83174458 11.82968523
Pt 7.83501377 3.92212546 15.73464761
Pt 7.82941642 5.87478553 17.71072679
Pt 9.76806334 3.89214684 17.70260120
Pt 9.76278627 5.94844647 15.79165006
Pt 7.82941825 7.81887825 0.03982390
Pt 7.77630864 9.75648740 2.01271410
Pt 9.75815490 7.85116199 1.90759817
Pt 9.75472505 9.88943874 0.02612402
Pt 7.85529709 7.84522115 3.97832623
Pt 7.79407189 9.85191467 5.82920324
Pt 9.87860355 7.87868534 5.81105181
Pt 9.78440486 9.77901500 3.93728783
Pt 7.90229992 7.80782517 7.77284732
Pt 7.97912338 9.73807300 9.74927476
Pt 9.89247988 7.84859925 9.82744201
Pt 9.93091504 9.77973565 7.78234171
Pt 7.87860897 7.84544994 11.73563177
Pt 7.83286974 9.81446592 13.72514410
Pt 9.81359376 7.87080395 13.68209664
Pt 9.81597466 9.71547894 11.78683713
Pt 7.89768787 7.90801803 15.76911085
Pt 7.88367037 9.87386283 17.70786405
Pt 9.74242959 7.89890646 17.70200497
Pt 9.80832985 9.85564170 15.65607278
Pt 7.79909472 11.79510876 0.08432312
Pt 7.79807360 13.83757993 1.99508512
Pt 9.79469997 11.73234542 1.96881195
Pt 9.81261349 13.74251563 19.59262327
Pt 7.85324366 11.83562531 3.95327193
Pt 7.84128746 13.72249643 5.85904085
Pt 9.82640028 11.83059870 5.82277997
Pt 9.83722272 13.71193128 3.82766995
Pt 7.89434805 11.71066034 7.89331569
Pt 7.80111488 13.70577969 9.74220908
Pt 9.82831839 11.75471215 9.77422383
Pt 9.77400203 13.67125668 7.87425733
Pt 7.81213022 11.76433484 11.72400325
Pt 7.85398458 13.66473686 13.69873270
Pt 9.74712264 11.78799568 13.69577078
Pt 9.79688855 13.71741435 11.77041536
Pt 7.83083705 11.74638371 15.62220650
Pt 7.74500421 13.63150478 17.60014478
Pt 9.80919419 11.81725828 17.60527811
Pt 9.73940252 13.72941890 15.70646159
Pt 7.82543530 15.65287609 19.56586850
Pt 7.82312775 17.54919210 1.97097466
Pt 9.75075587 15.61347622 1.92954200
Pt 9.82194099 17.54548724 19.59017263
Pt 7.80843039 15.71172233 3.96644143
Pt 7.84208439 17.64839192 5.95889409
Pt 9.73921980 15.68696755 5.87268925
Pt 9.78283445 17.61492002 4.01496293
Pt 7.79559280 15.68241233 7.81187249
Pt 7.83661864 17.61485140 9.76562436
Pt 9.69664560 15.64821642 9.81463340
Pt 9.76193607 17.59537901 7.90142319
Pt 7.83626318 15.63837591 11.73597741
Pt 7.82452487 17.66112232 13.72189490
Pt 9.76383534 15.68175537 13.69801594
Pt 9.76506535 17.59786099 11.70031315
Pt 7.88900234 15.72931563 15.63688063
Pt 7.85647140 17.56949665 17.73013066
Pt 9.77536169 15.70073761 17.58703754
Pt 9.79182276 17.68510646 15.54558684
Pt 11.70144792 19.56030476 0.08712868
Pt 11.75785833 2.03437116 2.02668968
Pt 13.60488146 0.00443627 2.02631198
Pt 13.70018344 1.93173073 0.09499320
Pt 11.71527485 0.00367667 4.04933252
Pt 11.74886669 1.93462154 5.87352591
Pt 13.72573038 19.52867191 5.89257671
Pt 13.73549403 1.97869485 3.92194741
Pt 11.77406977 0.03053618 7.84133247
Pt 11.74408923 2.02578228 9.82981214
Pt 13.65483217 0.06563621 9.83241742
Pt 13.67663899 2.01613988 7.81438632
Pt 11.77304511 19.54958295 11.69549966
Pt 11.78478085 1.92656051 13.67418747
Pt 13.68185661 19.58104651 13.64657894
Pt 13.64095659 1.98440275 11.74040050
Pt 11.75529960 19.54111042 15.68625094
Pt 11.75582089 1.93490929 17.59403461
Pt 13.64193593 19.59195450 17.59740846
Pt 13.65884096 1.88244161 15.62166226
Pt 11.71551154 3.95356798 19.53912654
Pt 11.76006395 5.89206203 1.91499103
Pt 13.81870706 4.04023628 1.84547071
Pt 13.69374695 5.98474062 19.59640999
Pt 11.84203100 3.99270994 3.87803038
Pt 11.84691152 5.90286916 5.82035741
Pt 13.82502340 3.89730594 5.84383764
Pt 13.80723364 5.93281966 3.88922689
Pt 11.74673548 3.98565477 7.78653640
Pt 11.77016649 5.88699462 9.79865735
Pt 13.77754856 3.91234113 9.79978521
Pt 13.70929663 5.86379231 7.85901898
Pt 11.77293457 4.00956199 11.82667002
Pt 11.67991776 5.87487327 13.86686473
Pt 13.68172127 3.97828900 13.77474184
Pt 13.70304186 5.93482330 11.78740164
Pt 11.75379007 3.93419010 15.75860277
Pt 11.72456541 5.89649800 17.63598351
Pt 13.75563803 3.84579495 17.66579667
Pt 13.73613409 5.86321070 15.58811402
Pt 11.76047616 7.93004498 19.56001118
Pt 11.80061285 9.82175727 1.93632020
Pt 13.73453256 7.87609472 1.98091127
Pt 13.72231858 9.86426606 19.52924658
Pt 11.81464810 7.94552082 3.87779376
Pt 11.82689901 9.80619968 5.85747247
Pt 13.79704648 7.87106795 5.81623241
Pt 13.72975805 9.87870524 3.91295747
Pt 11.83627163 7.85130561 7.76624504
Pt 11.80915631 9.77553029 9.78676937
Pt 13.73436318 7.81240716 9.79702239
Pt 13.70926299 9.83593184 7.79532757
Pt 11.83830709 7.91863508 11.86427964
Pt 11.69992015 9.81292909 13.72658554
Pt 13.75204684 7.84987860 13.75903032
Pt 13.74939197 9.83964817 11.73102716
Pt 11.74271135 7.82691976 15.75231922
Pt 11.68534511 9.84596399 17.63047962
Pt 13.70103381 7.85625139 17.65345371
Pt 13.69167314 9.77042706 15.64303547
Pt 11.76660051 11.82369698 0.02425743
Pt 11.76867106 13.72717709 1.96387847
Pt 13.77877289 11.79930296 1.96778637
Pt 13.71648871 13.70984215 19.55877573
Pt 11.78601783 11.79688730 3.94730033
Pt 11.77072357 13.73508203 5.83607965
Pt 13.77353802 11.83666878 5.88381758
Pt 13.66573395 13.80073082 3.94821394
Pt 11.79705059 11.75679071 7.78150615
Pt 11.77860965 13.75824220 9.84240113
Pt 13.71251310 11.83103600 9.78991959
Pt 13.74052280 13.71223389 7.75758903
Pt 11.75358677 11.74517810 11.74770720
Pt 11.73250361 13.72315521 13.69558601
Pt 13.69703219 11.69448320 13.67964446
Pt 13.68693710 13.74958756 11.76202070
Pt 11.74727698 11.79889021 15.63811973
Pt 11.75372207 13.78270308 17.58042878
Pt 13.66255033 11.74958815 17.64311303
Pt 13.68728520 13.80520405 15.71695428
Pt 11.75039922 15.64127544 19.57858349
Pt 11.70220609 17.63850878 2.06473864
Pt 13.68875105 15.66307139 2.01594937
Pt 13.73568158 17.58894655 0.01218693
Pt 11.66908158 15.74620887 3.89802394
Pt 11.80020273 17.62016475 5.97941286
Pt 13.69817355 15.74888643 5.84222578
Pt 13.68446922 17.60928749 3.93513726
Pt 11.74415464 15.66528006 7.90902389
Pt 11.77010858 17.57240165 9.75491890
Pt 13.78608591 15.61373315 9.75874120
Pt 13.73652523 17.71417128 7.95779879
Pt 11.78476065 15.66345105 11.74318195
Pt 11.77046341 17.64557060 13.61846931
Pt 13.72152546 15.69265928 13.68400740
Pt 13.86013091 17.57264780 11.78431937
Pt 11.70702478 15.68578920 15.65102948
Pt 11.78312297 17.57926366 17.62493450
Pt 13.72676661 15.72439990 17.61881563
Pt 13.71186035 17.65390789 15.63594086
Pt 15.58302019 0.02901603 19.58306854
Pt 15.62083425 1.98945416 1.91471724
Pt 17.61748651 19.47970135 1.89622137
Pt 17.54357852 1.92365969 19.56592546
Pt 15.66277628 0.01572656 3.88234202
Pt 15.65557428 1.90228539 5.89299388
Pt 17.60938733 0.01819423 5.86395473
Pt 17.60778515 1.93503892 3.84295717
Pt 15.70011793 0.00791773 7.77734607
Pt 15.73273683 2.02540314 9.80959849
Pt 17.65322128 0.05264122 9.84787291
Pt 17.64634851 1.91697956 7.84872616
Pt 15.62402696 0.03812572 11.78886181
Pt 15.67515933 1.97672922 13.64997074
Pt 17.56884472 0.01423796 13.62905302
Pt 17.64437596 2.01363141 11.79124582
Pt 15.68633333 0.02097041 15.61302843
Pt 15.61933098 1.89583805 17.61997216
Pt 17.61035333 0.03632838 17.56234017
Pt 17.63498480 1.94577197 15.58037685
Pt 15.67905380 3.85340267 19.51930964
Pt 15.72483506 5.95525216 1.83498296
Pt 17.59446102 3.90972349 1.95787675
Pt 17.65691580 5.81468077 19.58140151
Pt 15.69833537 3.89862329 3.91031061
Pt 15.70553031 5.92331608 5.89374405
Pt 17.58282415 3.94271783 5.87514123
Pt 17.59723130 5.87581159 3.93053290
Pt 15.71399160 3.96599074 7.76967880
Pt 15.70667012 5.91267452 9.85418586
Pt 17.63297929 3.94452998 9.84283739
Pt 17.65795781 5.87154191 7.83987657
Pt 15.57631486 3.93115428 11.76888156
Pt 15.68927611 5.86398485 13.76564845
Pt 17.62861993 3.90955438 13.68407987
Pt 17.57759888 5.88410029 11.73100953
Pt 15.60641124 3.85820200 15.64832373
Pt 15.65468582 5.86762311 17.62461218
Pt 17.66067733 3.83648023 17.59037955
Pt 17.59507646 5.82692734 15.67296285
Pt 15.77278207 7.92137566 19.53422073
Pt 15.65726516 9.83615742 1.89101817
Pt 17.71310497 7.89424388 1.95829135
Pt 17.70523981 9.79996665 19.58341921
Pt 15.70832495 7.88041509 3.93287163
Pt 15.62190978 9.78494782 5.87675077
Pt 17.58899689 7.90090796 5.90988420
Pt 17.62692434 9.84288988 3.94818431
Pt 15.68851427 7.91547705 7.80002214
Pt 15.66797301 9.78402768 9.80975713
Pt 17.58284225 7.83583491 9.81002191
Pt 17.61759314 9.89486168 7.85263817
Pt 15.64204674 7.87637387 11.80461036
Pt 15.69927555 9.83258813 13.67823855
Pt 17.74201980 7.82201342 13.76339639
Pt 17.63463143 9.81146950 11.72557955
Pt 15.73529771 7.83644305 15.64786450
Pt 15.66673087 9.82141598 17.59210466
Pt 17.62566449 7.85351904 17.59207841
Pt 17.60991744 9.84861512 15.63274412
Pt 15.71259110 11.64545596 19.58405385
Pt 15.65268945 13.69636375 1.93128505
Pt 17.62500677 11.80749906 1.91346867
Pt 17.57329798 13.70201650 19.47735485
Pt 15.66670056 11.82292015 3.90601211
Pt 15.62605654 13.79527801 5.82895041
Pt 17.61919798 11.86782326 5.85212134
Pt 17.56981360 13.74405264 3.92780764
Pt 15.65295351 11.74419040 7.75264909
Pt 15.70827490 13.75282541 9.81613940
Pt 17.59702996 11.79207079 9.74344214
Pt 17.58333020 13.80190193 7.76777891
Pt 15.67147800 11.82665699 11.77088180
Pt 15.67027882 13.75324733 13.81507842
Pt 17.68378112 11.76698869 13.70796625
Pt 17.63178187 13.69129911 11.78437631
Pt 15.67623999 11.75211826 15.62554035
Pt 15.57488113 13.70458669 17.56952108
Pt 17.65536987 11.79541822 17.59175737
Pt 17.65599028 13.73052115 15.67583786
Pt 15.73128062 15.61918809 0.00359001
Pt 15.66737140 17.63007392 1.97993389
Pt 17.65351804 15.65066855 1.88647548
Pt 17.58423680 17.66891276 19.57874624
Pt 15.65199648 15.66742517 3.85637548
Pt 15.66985671 17.64506816 5.81121938
Pt 17.64541266 15.69962484 5.87132800
Pt 17.65441697 17.68280145 3.90260297
Pt 15.70201135 15.79161835 7.80175544
Pt 15.77498039 17.62722016 9.79102972
Pt 17.68896300 15.68180230 9.79756251
Pt 17.66449694 17.65054369 7.88774954
Pt 15.70164869 15.67989989 11.77509722
Pt 15.65887456 17.63018073 13.76096866
Pt 17.69518230 15.66182012 13.75262415
Pt 17.63452439 17.67085629 11.84539699
Pt 15.64800143 15.75776213 15.66305903
Pt 15.67434486 17.64872419 17.62281943
Pt 17.63158237 15.68456974 17.58712193
Pt 17.61459286 17.62920919 15.67024282
