500
Final configuration Lattice="18.07500000 0 0  0 18.07500000 0  0 0 18.07500000" Properties=species:S:1:pos:R:3
Cu 17.97259531 18.00182725 0.10665887
Cu 0.01448621 1.94932038 1.62316421
Cu 1.76853419 0.09861001 2.02888465
Cu 1.63996301 1.80653464 0.04898053
Cu 17.96175729 0.18141314 3.74248767
Cu 17.96734826 1.77332807 5.48257115
Cu 1.88460335 0.05911824 5.55921813
Cu 2.14592309 2.07183354 3.89524443
Cu 0.02578269 17.86416201 7.73489828
Cu 18.07308788 1.97421627 9.10832572
Cu 2.02670765 17.92068145 9.22133346
Cu 1.90620341 1.88391433 7.69886437
Cu 18.01278057 18.06792040 10.69027254
Cu 0.29180281 1.96910378 12.38550192
Cu 1.97840029 0.29839136 12.35295587
Cu 2.13143581 1.87607630 10.78338572
Cu 0.09408210 17.86961228 14.82523254
Cu 0.14450986 1.91791988 16.43907775
Cu 1.62720158 0.15492709 16.36064621
Cu 1.76550139 1.98484887 14.66420143
Cu 0.01223882 3.83577368 17.82487428
Cu 0.16623147 5.54840886 1.66457554
Cu 1.68171100 3.58835585 2.02146598
Cu 1.61419362 5.59929013 18.06482896
Cu 0.01608109 3.33262944 3.73163211
Cu 17.96189199 5.35698624 5.14081757
Cu 1.83560630 3.76303219 5.44887201
Cu 1.62912783 5.58141792 3.57128256
Cu 17.77512707 3.81254195 7.56413977
Cu 17.77717798 5.65094049 8.96677937
Cu 1.65890246 4.13933716 8.65486759
Cu 1.73314706 5.60000746 7.03606613
Cu 0.17049258 3.64334316 10.86421971
Cu 0.24818861 5.47244293 12.55716699
Cu 2.10077858 3.36852285 12.39370349
Cu 1.97866065 5.40882581 10.84010528
Cu 0.00318628 3.46085544 14.27500822
Cu 0.00949829 5.84185737 15.97394014
Cu 1.69028733 3.90317722 16.23894321
Cu 1.87561393 5.52810738 14.41741920
Cu 0.03403777 7.16534510 0.12942666
Cu 17.74079449 9.05794786 2.00555001
Cu 2.14211596 7.20125483 1.74978378
Cu 2.25274619 9.05958187 17.97854081
Cu 0.27211523 7.26472460 3.57073842
Cu 0.12266259 9.36380377 5.81049247
Cu 1.69094790 7.39783735 5.43780390
Cu 1.74830699 9.40370180 3.96230901
Cu 17.74674781 7.09181537 7.10184108
Cu 18.01181559 9.17344360 9.02342148
Cu 1.61527639 7.22975660 8.84467688
Cu 1.71732760 9.06104093 7.35129617
Cu 0.07775975 7.21711535 10.83858318
Cu 0.43403139 8.93506355 12.37817762
Cu 2.05556123 7.31103006 12.51361629
Cu 1.88373803 9.59541966 10.54669917
Cu 0.13888676 7.38473536 14.01843220
Cu 0.13892168 8.86491716 16.22795489
Cu 2.44337551 7.10538453 16.11339216
Cu 2.11388364 9.10061464 14.53480922
Cu 18.00007075 10.54357253 18.01626904
Cu 0.07019651 12.99549928 1.84059106
Cu 1.53531517 10.51819579 1.96498155
Cu 1.68619611 12.42002621 0.30371433
Cu 0.03814220 10.98748517 3.91408036
Cu 17.81579329 12.95808405 5.59081838
Cu 1.78504570 11.01389961 5.59818882
Cu 1.46086854 12.87421126 3.82119592
Cu 17.98340666 11.44353475 7.39111545
Cu 0.05953960 12.46584297 9.26254618
Cu 1.76664189 10.99145854 8.81907529
Cu 1.74415556 12.86640019 7.18665693
Cu 0.00191212 10.77849501 10.87232855
Cu 0.41540791 12.86387864 12.74989039
Cu 1.78560922 10.57549554 12.75976251
Cu 1.68306212 12.45675915 11.08610791
Cu 0.21354437 10.82132194 14.42635632
Cu 0.09071077 12.80420457 16.67957697
Cu 1.87584630 11.02352825 16.32955925
Cu 1.78101514 12.76237546 14.53005724
Cu 0.12670596 14.56839248 0.25817865
Cu 17.84890063 16.59251147 1.93548349
Cu 1.79012512 14.44010051 2.00771823
Cu 1.60258754 16.46152976 0.21112601
Cu 17.88127172 14.54177077 3.43231897
Cu 17.92474989 16.43320331 5.53864666
Cu 1.58128106 14.88575179 5.28053488
Cu 1.78963426 16.42525386 3.73079233
Cu 17.52135449 14.53468308 7.28381411
Cu 17.92726246 15.92956258 9.06780695
Cu 1.55680256 14.25755074 9.16475169
Cu 1.61372418 16.10942102 7.53649509
Cu 17.98245645 14.56774546 10.97852735
Cu 0.37309216 16.32013997 12.93150080
Cu 2.06431820 14.65242033 12.52477074
Cu 1.62395262 16.30736720 10.80325071
Cu 0.49153877 14.55030820 14.92800741
Cu 18.05675862 16.03185078 16.53872463
Cu 2.12404148 14.54657414 16.69533028
Cu 2.14674023 16.40163445 14.35660718
Cu 3.69048004 0.32712302 0.31011080
Cu 3.57039911 1.95984249 1.92556457
Cu 5.69705855 0.04955649 1.96429048
Cu 5.72337045 1.94092422 0.26157628
Cu 3.92841784 0.04758716 3.76072137
Cu 3.61502183 2.30211109 5.47795354
Cu 5.46518385 17.88690427 5.47757194
Cu 5.43860272 1.64326038 3.75300701
Cu 3.92879207 0.08120852 7.21694299
Cu 3.70163023 1.63123879 9.22074540
Cu 5.84340537 0.27249135 9.30423514
Cu 5.68705445 1.57244399 7.40590668
Cu 4.11016194 17.97521884 10.85450527
Cu 3.88728591 1.72676859 12.47915192
Cu 5.67224619 17.94325049 12.55999029
Cu 5.48217980 2.04702403 10.84758066
Cu 3.38814482 0.13811238 14.50692219
Cu 3.60486291 1.68194466 16.47196865
Cu 5.36485249 0.20061130 16.65039446
Cu 5.44306539 1.89290063 14.52855840
Cu 3.81524815 3.48204791 17.90277307
Cu 3.52103766 5.32932078 1.68752917
Cu 5.25815277 3.34145114 2.09384444
Cu 5.54739061 5.21762757 0.08827176
Cu 3.62250884 3.98778940 3.60845671
Cu 3.58596100 5.73241553 5.46905240
Cu 5.68863277 3.50437284 5.77628794
Cu 5.34739033 5.36047233 3.59450294
Cu 3.78329802 3.77595082 7.62528128
Cu 3.48360335 5.69438571 8.90820903
Cu 5.59351541 3.31982232 8.92576493
Cu 5.28354517 5.44472192 7.09561045
Cu 3.65646536 3.82049533 10.38683276
Cu 3.48829037 5.62061508 12.35817227
Cu 4.98543893 3.63372807 12.62891166
Cu 5.31283067 5.48838573 10.33149092
Cu 3.39829994 3.94756673 14.40188079
Cu 4.05356459 5.29450891 16.28824907
Cu 5.73256640 3.78766632 16.24181111
Cu 5.24389768 5.30234858 14.31580190
Cu 3.68352970 7.01033721 0.01017104
Cu 3.30208051 9.26293887 2.15040174
Cu 5.13980904 6.96979089 1.92920307
Cu 5.66620145 9.09999777 0.15680803
Cu 3.38581394 7.69856615 3.92297017
Cu 3.65794435 9.38079270 5.47328867
Cu 5.44937649 7.27964159 5.37186486
Cu 5.47433441 9.43614449 4.00500288
Cu 3.73871522 7.50266177 7.09370419
Cu 3.75399155 9.09030214 8.76188502
Cu 5.71130945 7.15672369 8.78352338
Cu 5.69405617 8.87910996 7.20076896
Cu 3.56297829 7.50633459 10.57035119
Cu 4.00934286 9.28798467 12.20119851
Cu 5.56755381 6.86510774 12.35406531
Cu 5.46362189 8.54392817 10.49478934
Cu 3.74901188 7.40794767 13.88450585
Cu 3.79981867 8.98099784 16.36089863
Cu 5.16638369 7.34272575 16.08993039
Cu 5.40099813 9.06897732 14.25185373
Cu 3.60214376 10.98919794 0.21032167
Cu 3.67976390 12.68087600 2.17102968
Cu 5.00574439 10.61008208 2.01454077
Cu 5.17483254 12.60663032 0.19885710
Cu 3.34927419 11.28347995 3.88493706
Cu 3.52526726 13.23437972 5.49103792
Cu 5.28007991 11.23549685 5.36198317
Cu 5.37458401 12.85942275 3.74901320
Cu 3.43836344 11.14829677 7.20982276
Cu 3.58168009 12.51099895 9.01627901
Cu 5.56831679 10.51209859 8.92977267
Cu 5.17623831 12.80845298 7.39086903
Cu 3.91139465 11.02859121 10.59299461
Cu 3.43744751 12.47744659 12.50795207
Cu 5.32249251 11.26363651 12.56849768
Cu 5.31035230 12.62177704 10.59886230
Cu 3.83938171 10.77666989 14.67674205
Cu 3.60061799 12.63120771 16.55452715
Cu 5.40250530 10.76760035 16.38285570
Cu 5.30553418 12.57000228 14.57042401
Cu 3.44987197 14.40054299 0.48113075
Cu 3.28923452 16.45651733 2.06101621
Cu 5.34712950 14.55901095 1.85676018
Cu 5.34729731 16.34493194 0.21110383
Cu 3.64416315 14.55268932 3.56881923
Cu 3.59320232 16.17395954 5.47883375
Cu 5.60029675 14.50546483 5.53454059
Cu 5.29234315 16.37765142 3.75809531
Cu 3.62626742 14.50933154 7.46113079
Cu 3.57013316 16.16691300 9.26462385
Cu 5.48163288 14.58978947 9.14099389
Cu 5.54587904 16.08175294 6.99107992
Cu 3.53152516 14.15920602 10.52941191
Cu 3.61937024 16.58073353 12.57354665
Cu 5.07381069 14.20458793 12.77388759
Cu 5.52875319 15.94738059 11.02766713
Cu 3.47267271 14.30950194 14.72333574
Cu 3.35461590 16.78955278 16.88327827
Cu 4.97327403 14.60348116 16.47994770
Cu 5.19950960 16.28616372 14.68232808
Cu 7.29155805 0.16351967 17.94945550
Cu 7.28076783 1.92029665 1.80444450
Cu 8.94238281 17.71053574 1.44523454
Cu 9.00075738 1.62634889 17.91426959
Cu 7.41104173 0.13393024 3.62340698
Cu 7.05611777 1.68105287 5.66218388
Cu 9.08435021 0.24752948 5.36804574
Cu 8.95792212 1.98446306 3.59777316
Cu 7.56771111 17.87420848 7.52700774
Cu 7.49862607 1.99109758 9.34600072
Cu 9.10800857 18.06738909 9.40250852
Cu 8.98069932 1.68511694 7.67028566
Cu 7.53369047 18.02810417 10.91914641
Cu 7.09692977 1.63965185 12.69845674
Cu 8.70106657 17.59484818 12.72714186
Cu 8.96040359 1.94049443 10.98751749
Cu 7.15979875 17.76569187 14.35920551
Cu 7.21193587 1.85421956 15.86894496
Cu 8.99640742 0.07868066 15.95299343
Cu 9.18635546 1.62308522 13.90774272
Cu 7.37759170 3.62520136 17.69565024
Cu 7.09923266 4.69421368 1.81719550
Cu 9.17097824 3.74839047 1.90372496
Cu 9.03223943 5.23474666 17.80705605
Cu 7.20629965 3.39942237 3.80355884
Cu 6.83686898 5.52702797 5.32069900
Cu 8.92050499 3.68253470 5.31819804
Cu 8.88943795 5.42515129 3.71382238
Cu 7.39077653 3.65430930 7.26665388
Cu 7.43989066 5.29094855 8.92240842
Cu 9.32077165 3.76356888 9.03156479
Cu 8.85794188 5.39547288 7.03699857
Cu 7.06449183 3.93749611 10.72582382
Cu 7.31568124 5.38351894 12.50589213
Cu 9.23345160 3.71857588 12.72432308
Cu 9.32994539 5.63506788 10.45461604
Cu 7.32008573 3.53473044 14.38917200
Cu 7.46986186 5.36765010 15.95643051
Cu 9.18536621 3.48173108 16.05092513
Cu 9.20374720 5.51292133 14.50116390
Cu 6.82894809 7.09890086 17.90086664
Cu 7.47190123 8.65238815 2.01890041
Cu 9.05690608 6.55679990 1.69421576
Cu 8.80030524 8.46805640 0.30714849
Cu 7.32505958 6.94395212 3.45345478
Cu 7.45953045 9.09857331 5.43161101
Cu 9.19031838 7.20857852 5.36697002
Cu 9.02346489 8.79325372 3.70095492
Cu 7.38341586 7.41526061 7.07673609
Cu 7.42991208 8.71624644 9.16966888
Cu 9.30561728 7.16761993 8.63835321
Cu 8.82188401 9.05886758 7.09832094
Cu 7.46578890 6.92854131 10.58868814
Cu 7.21343766 8.95549553 12.05335770
Cu 9.09849563 7.26679903 12.59372267
Cu 9.17412280 8.75567930 10.60796191
Cu 6.82616984 6.78423002 14.23895992
Cu 6.97487820 8.75781589 15.78165877
Cu 8.94315206 7.48725228 16.42824363
Cu 8.70028848 9.05396041 14.14979272
Cu 6.86453921 10.81979341 0.81776012
Cu 6.98224153 12.89576219 1.99809117
Cu 8.95856749 10.68067845 2.20330972
Cu 8.66244818 12.62222006 0.35424156
Cu 7.13389850 10.86009177 3.59611499
Cu 7.27654313 12.57985624 5.22674075
Cu 9.02375169 10.99499800 5.13751915
Cu 9.19095277 12.57356125 3.42055244
Cu 6.99427747 10.99901633 6.99484864
Cu 7.15031056 12.52683710 9.14886421
Cu 8.84569443 10.67716042 8.85188205
Cu 8.95348951 12.27919177 7.02544653
Cu 7.00417039 10.74514202 10.78318452
Cu 7.04216284 12.70829652 12.70213710
Cu 8.96859237 10.98980095 12.66392059
Cu 8.90303111 12.39746612 10.68882462
Cu 7.07579903 10.95822496 14.12481768
Cu 7.15289324 12.65896849 16.56484639
Cu 8.35448204 10.66726731 16.46331087
Cu 8.80715172 12.45758444 14.83554781
Cu 7.10114624 14.65173643 0.06446869
Cu 7.15105505 16.37085845 1.92129424
Cu 9.16998936 14.62803168 1.70518690
Cu 9.27362853 16.08697114 17.78840068
Cu 7.08133845 14.87644137 3.66956077
Cu 7.52816294 16.74862564 5.68535615
Cu 8.92078696 14.17161654 5.20123634
Cu 9.07569169 16.79075118 3.48658862
Cu 7.22049250 14.62905597 7.26680918
Cu 7.27672931 16.23379841 9.04887005
Cu 9.01934524 14.13324193 8.77095902
Cu 9.26409491 16.33659124 7.39210341
Cu 7.13761632 14.32876818 10.74673684
Cu 6.96014296 15.72406683 12.78738987
Cu 8.99538340 14.29335900 12.29852517
Cu 9.25526804 16.22584469 10.97500781
Cu 6.90891847 14.30570499 15.03549114
Cu 6.93638949 16.22564214 16.30218022
Cu 8.96187522 14.08099665 16.55422791
Cu 8.78948650 15.88263010 14.62610872
Cu 10.92064974 0.05466313 17.88019558
Cu 10.84863749 2.05638204 1.79461260
Cu 12.53430121 0.11669425 1.31929979
Cu 12.65424744 1.83447546 17.79322177
Cu 10.84683520 0.10254124 3.15385756
Cu 10.66610974 2.06381298 5.02155270
Cu 12.19053999 17.68611609 5.26262215
Cu 12.75615154 1.43363516 3.44685976
Cu 10.87329888 0.08290051 7.38845852
Cu 10.81725392 2.03976035 9.60020724
Cu 12.95346925 0.11723714 9.22110560
Cu 12.49816416 2.09249451 6.79757574
Cu 10.72571881 17.96727171 11.20171095
Cu 11.12646156 1.70193560 12.67631920
Cu 12.83953602 17.56566022 12.94094753
Cu 12.90068024 1.56656675 11.28262062
Cu 11.26933108 0.01711780 14.39712624
Cu 10.89757328 1.61152981 16.01815883
Cu 12.75149760 17.99208556 16.24223150
Cu 13.05183068 1.81155002 14.20250405
Cu 10.69119252 3.63200157 17.66760467
Cu 11.04360152 5.39494991 1.63002143
Cu 12.77879563 3.40869087 1.87575804
Cu 12.78584934 5.13401243 17.62831307
Cu 10.65946622 3.86277355 3.53570143
Cu 10.80660485 4.97088843 5.50114670
Cu 12.67156313 3.39229720 4.98089332
Cu 12.65442558 5.07967369 3.24600866
Cu 10.63433430 3.33472806 7.03498164
Cu 10.95964299 5.37807258 8.46790232
Cu 12.69257301 3.56935192 9.09893412
Cu 12.72216339 5.11597716 7.00243120
Cu 10.79977072 3.65240471 11.17918962
Cu 10.93702268 5.87579867 12.42361164
Cu 12.89950761 3.85043558 12.61753657
Cu 12.22769197 5.56073443 10.34853365
Cu 11.26439068 3.69278093 13.99250637
Cu 10.93521840 5.47002313 16.12671611
Cu 12.45975455 3.61171005 15.96589119
Cu 12.69115882 5.68611390 14.58334970
Cu 10.82033305 7.20132066 0.11690605
Cu 10.89811484 8.92856385 2.09910602
Cu 12.64202911 7.14851088 1.67024390
Cu 12.18698528 9.27380701 0.19641336
Cu 10.71360705 7.09720188 3.46578233
Cu 11.14275132 8.73602153 5.05373260
Cu 12.86625743 6.77372384 5.00999791
Cu 12.73254235 8.72773650 3.37748249
Cu 11.48146952 6.93614126 6.73082186
Cu 10.64448321 9.25694009 8.75846979
Cu 12.49592713 7.51055294 8.98499680
Cu 12.52404410 9.06472535 6.86360041
Cu 10.82476225 7.32218674 10.59114837
Cu 10.68026305 8.75906966 12.62178093
Cu 12.86063078 7.10118771 12.50335175
Cu 12.51294787 9.15892180 10.84245306
Cu 10.93789081 7.29493058 14.96473538
Cu 10.63519438 9.12070442 16.52349397
Cu 12.69694218 7.75006805 16.34828070
Cu 12.45835078 9.07698558 14.28854432
Cu 10.46721228 11.05589296 0.24179262
Cu 10.99430423 12.35411942 2.17637452
Cu 12.63089325 10.87935833 1.72245424
Cu 12.50892240 12.24208367 17.97571820
Cu 11.24567763 10.65089213 3.73811191
Cu 10.72291568 12.68192545 5.60135160
Cu 12.73965147 10.95410139 5.87849496
Cu 12.79804600 12.67589137 3.51530671
Cu 10.72332618 10.77368488 6.98862467
Cu 10.78071846 12.23099304 9.11738834
Cu 12.85766365 10.60964198 9.11648148
Cu 12.60678533 12.94868682 7.67221274
Cu 10.64908592 10.64646940 10.88212962
Cu 10.75981493 12.64747482 12.41534362
Cu 12.31845945 10.73872355 12.69004122
Cu 12.50524099 12.58453108 10.80194801
Cu 10.58066888 10.75000087 14.31276140
Cu 10.75734381 12.10185389 16.06248625
Cu 12.47846747 10.50222473 16.32061852
Cu 12.55321581 12.20966416 14.66789134
Cu 10.58675502 13.90728053 0.07295473
Cu 11.08082538 15.93526991 1.39527039
Cu 12.48261502 14.16969572 1.50318873
Cu 12.52152868 16.12783650 17.81723543
Cu 10.80035743 14.78287142 3.78515903
Cu 10.43925234 16.13106084 5.52390407
Cu 12.40384756 14.46263219 5.44010960
Cu 12.66267516 16.13158554 3.14337400
Cu 10.73886600 14.28633594 7.30151283
Cu 11.09482584 16.56844718 9.15310656
Cu 12.60281786 14.57024944 9.32626903
Cu 12.68415998 16.36412207 7.08371575
Cu 10.81944660 14.28753095 10.83305356
Cu 10.65489769 16.10325640 13.26832261
Cu 12.52592554 14.18584660 12.81253107
Cu 12.50842086 16.19094700 11.16194655
Cu 10.83797467 14.19950801 14.85609507
Cu 10.77521753 16.36004685 15.96402416
Cu 12.54147023 14.21028295 16.38483292
Cu 12.70870989 15.90659453 14.52475455
Cu 14.51104567 0.01768276 18.02502753
Cu 14.22722868 1.71011822 1.74558078
Cu 16.18963658 0.01491645 1.72637308
Cu 16.18418605 1.77656846 17.74573941
Cu 14.52176555 18.03077977 3.62987235
Cu 14.56821429 1.70445970 5.15560062
Cu 16.29542556 0.07185893 5.26816846
Cu 16.12953656 1.70480573 3.43494463
Cu 14.18200152 0.40048342 7.29191401
Cu 14.59020035 2.00930979 9.05040132
Cu 16.17787501 0.02537387 9.03810323
Cu 16.32563441 1.81484441 7.48034605
Cu 14.50017377 0.00707960 11.03827217
Cu 14.84044782 1.61506486 12.74763768
Cu 16.82467276 0.21173866 12.79539015
Cu 16.37326543 1.71901540 10.94314858
Cu 14.56291672 17.86012263 14.53959855
Cu 14.62395280 1.77712561 16.20948714
Cu 16.26820523 17.85119362 16.22228389
Cu 16.00275364 1.88732438 14.49388746
Cu 14.64127458 3.49411992 17.90956387
Cu 14.59449245 5.34392147 1.80891635
Cu 16.30374970 3.49586603 1.76855841
Cu 16.39271574 5.56458246 0.16632050
Cu 14.54856193 3.69998901 3.40542143
Cu 14.88332328 5.52850046 5.23727821
Cu 16.26809479 3.69050507 5.46323886
Cu 16.40226718 5.54591368 3.53464059
Cu 14.62496385 3.28962718 7.19226660
Cu 14.35873413 5.40524906 9.20711621
Cu 16.08011357 3.70140509 9.28885293
Cu 16.12861184 5.34617620 7.13359649
Cu 14.33565444 3.97066137 10.88655705
Cu 14.60652743 5.70907653 12.58419851
Cu 16.29440036 3.58467847 12.47844509
Cu 16.46278575 5.53109260 10.88229147
Cu 14.32702866 3.90286508 14.20360596
Cu 14.72396291 5.36176655 16.21601885
Cu 16.33508419 3.64406154 16.17648247
Cu 16.33707158 5.72881291 14.42678849
Cu 14.21621773 7.34036761 0.12275366
Cu 14.51083774 9.41260420 1.96277063
Cu 16.45953932 7.37293735 1.49495974
Cu 16.04002482 9.09674294 18.00490116
Cu 14.74545296 7.35218081 3.19062183
Cu 14.39535750 8.63416471 5.30736278
Cu 16.40949157 7.51705861 5.33177992
Cu 16.44844820 9.22079541 3.88550201
Cu 14.22915847 7.04890989 7.48787243
Cu 14.62986540 8.98408649 8.96534602
Cu 16.16031646 7.12506272 8.86289224
Cu 16.26368742 8.97899624 7.16157201
Cu 14.46360821 7.49549234 10.81497857
Cu 14.48561858 9.20701252 12.41210357
Cu 16.34879223 7.45026448 12.61419513
Cu 16.16674085 8.98632526 10.88851777
Cu 14.67970163 7.31515752 14.66118116
Cu 14.52931265 9.11515132 16.19114459
Cu 16.41447017 7.43186813 16.23953668
Cu 16.26176133 9.09147101 14.18909876
Cu 14.29607841 10.81035312 17.92926620
Cu 14.64244857 12.25214837 1.63238844
Cu 16.54827815 10.98896676 1.89037757
Cu 16.25137418 12.25245097 17.95605001
Cu 14.28159812 11.02890683 3.47243250
Cu 14.13927059 12.75109002 5.58393535
Cu 15.73995423 10.80629015 5.40991995
Cu 16.06884229 12.64193584 3.70481791
Cu 14.37996056 10.96998215 7.45329626
Cu 14.52156896 12.53145368 9.13517746
Cu 16.16598042 10.80592629 9.14129064
Cu 16.05401694 12.80422528 7.23986756
Cu 14.25822399 10.92973251 10.87265116
Cu 14.38504254 12.58868131 12.30075313
Cu 16.19047484 10.92929928 12.67341943
Cu 16.78301238 12.63220859 11.17455400
Cu 14.26636996 10.81074227 14.64531546
Cu 14.14292151 12.80663290 16.38385046
Cu 16.62868227 10.87709525 16.21753120
Cu 16.44560333 12.34969119 14.47452472
Cu 14.41462524 14.00439839 0.22811186
Cu 14.37306521 16.23065788 1.74012214
Cu 16.29305972 14.67807369 1.76093221
Cu 16.28152958 16.21842678 0.04777716
Cu 14.44670177 14.43799235 3.48924827
Cu 14.56355905 16.16772655 5.22959031
Cu 16.11001044 14.34392533 5.22382420
Cu 16.21753294 16.24981125 3.63763552
Cu 14.32533479 14.56145749 7.19464429
Cu 14.32576715 16.36698744 9.01109836
Cu 16.00990924 14.72374701 9.04390898
Cu 16.00808877 16.54997974 6.98839025
Cu 14.23100007 14.38212818 10.77261832
Cu 14.54336545 16.09882009 12.89510832
Cu 16.29244095 14.34155781 12.66648165
Cu 16.22781242 16.33901048 11.00116343
Cu 14.80430763 13.98100890 14.15669397
Cu 14.66020412 15.74486413 16.33165733
Cu 16.39299617 13.99466984 16.28491887
Cu 16.17563563 16.11582012 14.49016056
