500
Final configuration Lattice="18.07500000 0 0  0 18.07500000 0  0 0 18.07500000" Properties=species:S:1:pos:R:3
Cu 18.00879599 0.14028185 0.01907233
Cu 0.01028449 1.92668165 1.81106526
Cu 1.81261844 0.20192122 1.88418492
Cu 1.95843192 1.95429465 0.06088701
Cu 17.95652897 0.01525274 3.71611838
Cu 18.06830177 1.83344904 5.54605304
Cu 1.87502263 0.04507428 5.55026512
Cu 1.84087158 1.80692775 3.72263554
Cu 17.99698310 0.01040811 7.25385016
Cu 17.99454161 1.74414720 9.10553170
Cu 1.67075217 0.08067889 9.00722926
Cu 1.87490182 1.93351653 7.25359933
Cu 17.96173641 17.91184683 10.79140180
Cu 18.04935837 1.61889221 12.48804957
Cu 1.73707048 0.04739077 12.55756906
Cu 1.80404670 1.89271303 10.81030469
Cu 17.97956728 18.01918797 14.55195744
Cu 18.05061516 1.88369252 16.23840386
Cu 1.78143398 0.17758692 16.30536320
Cu 1.77251544 1.75585914 14.39425130
Cu 0.07118152 3.61557315 0.06588820
Cu 0.01865252 5.28190179 1.96762131
Cu 1.85597817 3.62762776 1.75101281
Cu 1.81199002 5.66865979 18.04798048
Cu 0.20862564 3.50583367 3.56683098
Cu 0.05139593 5.47539896 5.43655976
Cu 1.99533524 3.72077783 5.52289186
Cu 1.89878430 5.55915819 3.61759617
Cu 0.02246644 3.63169194 7.23876317
Cu 18.06406571 5.34340643 9.14918334
Cu 1.63254540 3.40638077 9.04022484
Cu 1.56554368 5.39144703 7.36071810
Cu 0.17431222 3.60944112 11.05973108
Cu 0.24397246 5.58502524 12.64362796
Cu 1.92004126 3.56933198 12.60695020
Cu 1.92393894 5.35783980 10.63334019
Cu 0.08866866 3.59965946 14.20320760
Cu 18.03985453 5.47800327 16.17875713
Cu 1.64848030 3.72136850 16.16421002
Cu 1.76757124 5.50163554 14.49853407
Cu 18.02971865 7.35403991 0.19088365
Cu 17.94431178 8.93176167 1.82041511
Cu 1.96821631 7.22771333 1.86239565
Cu 1.83638801 8.98741217 0.10654425
Cu 17.95737297 7.16030954 3.59034155
Cu 17.98621090 8.99743524 5.41111392
Cu 1.62879829 7.35568620 5.39180521
Cu 1.57322050 8.95233606 3.60265646
Cu 17.99640782 7.22843895 7.31713638
Cu 0.05648300 8.99713872 9.01298281
Cu 1.72105656 7.27912559 8.92506141
Cu 1.74431356 9.05841962 7.18583595
Cu 0.16525782 7.44339107 10.86311234
Cu 0.00248574 9.03836503 12.51469446
Cu 1.82454724 7.48244683 12.91253457
Cu 2.04348647 9.16794262 10.70616586
Cu 18.04250072 7.30877693 14.41494093
Cu 18.02981395 8.93239213 16.34684540
Cu 1.65426081 7.26419957 16.14663227
Cu 1.77893751 9.11214748 14.65281383
Cu 18.07145593 10.94131179 0.13854732
Cu 18.04948286 12.73795334 1.97935795
Cu 1.70697345 10.93603018 1.75058415
Cu 1.77301540 12.72559028 0.08527423
Cu 17.97880288 10.73016935 3.56928491
Cu 17.98734658 12.70302259 5.47821887
Cu 1.67423968 10.73430874 5.50253202
Cu 1.53312794 12.43169503 3.73052631
Cu 17.93259813 10.87770255 7.11631694
Cu 18.01306924 12.62486470 9.07599677
Cu 1.75063285 10.90290300 8.94228053
Cu 1.62176562 12.74041363 7.24002578
Cu 18.00744369 10.97106326 10.80725240
Cu 0.12870834 12.58026264 12.47786265
Cu 1.88417774 10.89049480 12.53815485
Cu 2.03216740 12.76835370 10.88673003
Cu 0.05582035 10.76754017 14.32068956
Cu 0.06468888 12.59841627 16.23285392
Cu 1.66149822 10.82477271 16.52318355
Cu 1.71607896 12.65051756 14.31742124
Cu 0.04655646 14.43949770 0.08930117
Cu 0.07105293 16.32523815 1.77812265
Cu 1.87612923 14.40597812 2.00027626
Cu 1.81750440 16.28666854 0.03250970
Cu 18.02308961 14.44702378 3.60589149
Cu 0.04382989 16.41368295 5.52236213
Cu 1.63400940 14.46586769 5.48815443
Cu 1.60585763 16.36832715 3.65258877
Cu 17.97796350 14.42092103 7.19556803
Cu 18.07251426 16.33775412 8.92760852
Cu 1.77458935 14.43344553 8.94086746
Cu 1.80964195 16.33903969 7.24031783
Cu 0.15540869 14.28683551 10.74208004
Cu 0.01279071 16.30786720 12.58160292
Cu 1.90848846 14.59129283 12.79213943
Cu 1.65503135 16.24422752 10.82152635
Cu 18.06110884 14.58937176 14.33509647
Cu 0.07097286 16.31585432 16.35502480
Cu 1.65685323 14.55667641 16.20217484
Cu 1.77702528 16.31027518 14.53984990
Cu 3.55051066 0.08029401 0.00680045
Cu 3.60415843 1.86155629 1.81614429
Cu 5.23843930 17.97503829 2.01817131
Cu 5.15301337 1.97353588 17.98373692
Cu 3.56523734 0.08820363 3.61083977
Cu 3.60923031 1.74571944 5.48265896
Cu 5.68390853 0.04454319 5.32344935
Cu 5.36744626 1.93992509 3.60749424
Cu 3.71129015 17.98053653 7.10322768
Cu 3.66525555 1.86613841 9.24023191
Cu 5.39261020 18.04166493 9.26025822
Cu 5.39526422 2.02008842 7.22064193
Cu 3.45052183 17.99081989 10.97149768
Cu 3.55475812 1.82887004 12.59646137
Cu 5.17421083 18.06411950 12.65533531
Cu 5.44050439 1.86331178 11.03076934
Cu 3.47005395 0.16657295 14.37966629
Cu 3.52872612 1.98403705 16.22271378
Cu 5.32366183 0.03793879 16.26366765
Cu 5.43201658 1.82969947 14.48725434
Cu 3.50747787 3.81165641 18.06819955
Cu 3.58027823 5.64918054 1.73280549
Cu 5.34229047 3.67471213 1.80726628
Cu 5.45333167 5.36289485 17.82316803
Cu 3.61664267 3.62531438 3.62672133
Cu 3.44846354 5.51085147 5.56672083
Cu 5.27896585 3.80537266 5.53565425
Cu 5.25172806 5.44795303 3.55636145
Cu 3.58160932 3.65632715 7.33456030
Cu 3.70680930 5.42161817 9.14005904
Cu 5.46959439 3.57493056 9.07034337
Cu 5.42583171 5.36802672 7.36353524
Cu 3.72787386 3.78287623 10.90335959
Cu 3.54304109 5.39256957 12.78858720
Cu 5.59613825 3.55949164 12.75620077
Cu 5.48703397 5.40150055 10.96513152
Cu 3.62633759 3.58429722 14.51813016
Cu 3.59745501 5.49726990 16.15857871
Cu 5.41768921 3.61630840 16.22166571
Cu 5.50403254 5.43088317 14.48632831
Cu 3.66599951 7.37490805 17.92318316
Cu 3.39398899 9.32384470 2.00079769
Cu 5.37864110 7.31544132 2.00067376
Cu 5.29954907 9.11229138 17.96782290
Cu 3.66139544 7.25857286 3.83166729
Cu 3.65182966 8.89545271 5.59530593
Cu 5.44791733 6.99355879 5.37760970
Cu 5.57446230 9.18113363 3.48145645
Cu 3.75571811 7.14759321 7.35177022
Cu 3.54310798 8.92923458 8.90346932
Cu 5.42763464 6.99301301 9.14948634
Cu 5.41970971 8.83345123 7.33313925
Cu 3.56072679 7.24162248 10.91236842
Cu 3.70981435 9.06350581 12.57727621
Cu 5.36478597 7.11529912 12.56327576
Cu 5.44222984 8.94845599 10.85960274
Cu 3.57707630 7.43458736 14.55389221
Cu 3.58605991 9.03584174 16.23622892
Cu 5.72040005 7.28221645 16.32850187
Cu 5.49077921 8.94327736 14.53422758
Cu 3.55437910 10.83012584 0.07416633
Cu 3.63402572 12.67249810 2.14729956
Cu 5.70733500 10.81906596 1.79084351
Cu 5.19742000 12.62597197 0.11537644
Cu 3.52414607 10.90951356 3.80002877
Cu 3.44605126 12.62657991 5.34417847
Cu 5.36622689 10.60045387 5.56014489
Cu 5.47264213 12.29954951 3.87466398
Cu 3.58368048 10.99756356 7.19682585
Cu 3.45239082 12.74986434 8.84627797
Cu 5.25053696 10.70546108 8.98665973
Cu 5.37815544 12.67665323 7.20460266
Cu 3.57877385 10.93871359 10.70611121
Cu 3.66828919 12.65158128 12.74913041
Cu 5.40828129 10.62206419 12.55121828
Cu 5.37974001 12.61413092 10.82901769
Cu 3.67816726 10.62545257 14.39932332
Cu 3.41406203 12.50214233 16.15855802
Cu 5.39347529 10.97607278 16.19036367
Cu 5.43996014 12.58138276 14.36840784
Cu 3.49615394 14.59607836 18.06306537
Cu 3.41095928 16.24486665 2.00241840
Cu 5.26162756 14.54651973 1.87773991
Cu 5.36778297 16.32992573 17.98961313
Cu 3.70639504 14.40761657 3.96794039
Cu 3.67907182 16.34147892 5.31087791
Cu 5.48848957 14.47105402 5.62360205
Cu 5.43643802 16.06970269 3.72501100
Cu 3.55203873 14.45674658 7.10873993
Cu 3.56692028 16.34925318 9.01408343
Cu 5.22259065 14.62426133 9.03863098
Cu 5.52811558 16.38356695 7.32361384
Cu 3.51684171 14.64301938 10.74843421
Cu 3.61075618 16.21815132 12.93032532
Cu 5.32468316 14.47646735 12.66803478
Cu 5.32124497 16.36153961 10.86025404
Cu 3.60443699 14.49604697 14.66416638
Cu 3.55206944 16.35642296 16.19640532
Cu 5.39395287 14.28136182 16.29884200
Cu 5.55592282 16.42474975 14.40541688
Cu 7.21185692 17.90566034 18.02052715
Cu 7.10581342 1.81705366 1.74998577
Cu 8.83508735 0.05123493 1.76796467
Cu 9.03258654 1.91703769 0.14516189
Cu 7.22158498 0.04279783 3.50997764
Cu 7.16898603 2.07678896 5.47121421
Cu 9.01438137 0.18820660 5.39406758
Cu 8.98156675 1.79657420 3.57169750
Cu 7.15437301 0.29950063 7.28223021
Cu 7.24700430 1.92120168 9.32273071
Cu 9.11167857 0.03612941 9.00123816
Cu 9.01994236 1.92337655 7.36237479
Cu 7.29255314 17.90509764 10.95075811
Cu 7.29032341 1.58612206 12.67875167
Cu 9.16721454 18.06524891 12.60512559
Cu 9.17039315 1.75804740 10.88170869
Cu 7.18793385 0.03277558 14.34149092
Cu 7.21418972 1.86457550 16.46270717
Cu 8.86312001 17.98033387 16.28805976
Cu 9.02660848 1.85792396 14.43891130
Cu 7.10537228 3.53667593 0.02538576
Cu 7.02031384 5.44746360 1.78206907
Cu 9.14568647 3.66320402 1.74091877
Cu 8.82439054 5.38051321 0.01130908
Cu 7.03251831 3.56319207 3.42375364
Cu 7.34478949 5.36264277 5.36954223
Cu 8.97680080 3.59185495 5.41221411
Cu 9.01991488 5.50820378 3.72570110
Cu 7.38469049 3.70314848 7.39665623
Cu 7.54418042 5.58787960 9.12916852
Cu 9.20427146 3.67779485 9.05818530
Cu 9.01641327 5.43511466 7.24699911
Cu 7.48723442 3.84220511 10.78113994
Cu 7.30047035 5.53313456 12.78940659
Cu 9.08055471 3.61951007 12.75227837
Cu 9.33770576 5.48332753 10.67352163
Cu 7.30970386 3.49162507 14.41060299
Cu 7.31097956 5.50124076 16.26254479
Cu 9.06283627 3.69665606 16.26043548
Cu 9.03868360 5.39620085 14.56398224
Cu 7.29696361 7.38381054 0.01426551
Cu 7.30757708 8.98491485 1.79854424
Cu 9.07671719 7.24184266 2.07747629
Cu 9.06337729 9.11910423 0.12371014
Cu 7.14812176 7.15941969 3.64805297
Cu 7.21108186 8.88550677 5.56514482
Cu 9.08005257 7.42293818 5.28752260
Cu 9.02920843 9.13455106 3.52283275
Cu 7.33097175 7.21362482 7.16005533
Cu 7.37968482 8.76912856 8.92522878
Cu 9.38253434 7.20028698 9.04020251
Cu 8.97713049 9.16886196 7.28522916
Cu 7.45433638 7.30285141 10.92352296
Cu 7.25471823 8.91555368 12.78941182
Cu 9.07360884 7.23212483 12.60258907
Cu 9.05353020 8.97268286 10.83471568
Cu 7.22450679 7.24670985 14.42785682
Cu 7.20304990 9.17132791 16.13940615
Cu 9.08927464 7.30840268 16.30029810
Cu 9.15952704 8.97221504 14.54609909
Cu 7.23019894 10.92139746 17.91593439
Cu 7.09613586 12.79941499 1.98910779
Cu 8.91176035 11.02728926 1.84330756
Cu 9.06025293 12.62376358 0.03814504
Cu 7.25790663 10.69413895 3.68784553
Cu 7.09100219 12.56213534 5.60466928
Cu 8.97176819 10.71309457 5.44563160
Cu 9.02560332 12.51493906 3.79968731
Cu 7.04210097 10.72062076 7.38904635
Cu 7.30668728 12.65061828 9.05028259
Cu 9.09084415 10.83233393 8.93803067
Cu 9.22218450 12.64891427 7.45007888
Cu 7.07653545 10.69111375 10.86062442
Cu 7.08841028 12.52951966 12.47540450
Cu 9.13527419 10.90610515 12.66181076
Cu 9.03223494 12.54388717 10.91179986
Cu 7.13645095 10.87603390 14.32443713
Cu 7.34456000 12.68027673 16.28316739
Cu 8.97260561 10.73186813 16.18363597
Cu 8.97532648 12.68345918 14.53889193
Cu 7.04454679 14.58514129 0.04513591
Cu 7.31108552 16.31027836 1.81913529
Cu 8.94095770 14.49779073 2.08337402
Cu 9.12996409 16.15442766 18.00886323
Cu 7.19427187 14.36832536 3.85354973
Cu 7.42938146 16.31433050 5.47900861
Cu 9.13073991 14.46339447 5.42011205
Cu 9.04650992 16.31235988 3.69570085
Cu 7.25175364 14.46508746 7.14230396
Cu 7.53679291 16.06342238 8.84657029
Cu 9.23358568 14.36820893 9.04523026
Cu 9.32901210 16.26925212 7.15083567
Cu 7.41546687 14.47580122 10.92191467
Cu 7.27754523 16.37663472 12.77943505
Cu 9.00445956 14.60074408 12.63528414
Cu 9.17223446 16.15732289 10.76625951
Cu 7.22496532 14.42700615 14.33749092
Cu 7.10221645 16.03617013 16.24271248
Cu 9.04636108 14.52451149 16.10518805
Cu 9.10973974 16.36487846 14.45648055
Cu 10.85129505 0.02582657 0.14978673
Cu 10.77092510 1.76300679 1.92040353
Cu 12.63787256 0.04811808 1.69297287
Cu 12.74688634 1.77061724 17.93397867
Cu 10.72833053 18.05072432 3.41037429
Cu 10.85556906 1.86329907 5.27433428
Cu 12.59746101 0.11957890 5.46833980
Cu 12.48606931 1.72810933 3.55787650
Cu 10.63586789 0.23303517 6.99921929
Cu 10.76227337 1.69818846 9.06415375
Cu 12.38623880 18.03042196 8.67259920
Cu 12.59861562 1.92826048 7.21325254
Cu 11.03927302 17.94659952 10.83458715
Cu 10.82380579 1.68166827 12.58939290
Cu 12.71221873 17.94306557 12.65617564
Cu 12.49363573 1.69760859 10.81884099
Cu 10.99310917 0.10193044 14.49726906
Cu 10.79723037 1.99422938 16.28955091
Cu 12.82204794 0.02272264 16.38798794
Cu 12.45950585 1.92545108 14.54851872
Cu 10.72726988 3.60896477 0.04168294
Cu 10.62882342 5.58197098 1.55689652
Cu 12.47706316 3.63272780 1.78628934
Cu 12.48051484 5.28614407 17.97543646
Cu 10.91740323 3.69966079 3.56817524
Cu 10.85897361 5.46606442 5.53022185
Cu 12.65233055 3.73695760 5.43864246
Cu 12.70150652 5.39406054 3.73039904
Cu 10.78547894 3.54125324 7.23397554
Cu 10.92487152 5.37370695 8.87590910
Cu 12.54969737 3.42753652 8.85921313
Cu 12.64077157 5.21933531 7.28888240
Cu 10.85238848 3.57040880 10.84041940
Cu 10.81976243 5.51287937 12.58776829
Cu 12.58351797 3.61140861 12.64158553
Cu 12.48447907 5.42551501 10.85196720
Cu 10.78928345 3.60678187 14.19395505
Cu 10.82826856 5.53844899 16.08145819
Cu 12.50760481 3.67558783 16.17080901
Cu 12.61139230 5.34058579 14.31497613
Cu 10.66760515 7.27337460 18.04376857
Cu 10.92879435 8.96599409 1.74225181
Cu 12.61496736 7.20953228 1.76289775
Cu 12.73347886 9.00657452 0.14419758
Cu 11.00182631 7.18069957 3.71475289
Cu 10.84776362 9.17028393 5.43452174
Cu 12.73836284 7.09521670 5.44501928
Cu 12.56487144 9.16130112 3.55576736
Cu 10.77109837 7.50007432 7.12365797
Cu 11.02839280 9.06257893 9.13536875
Cu 12.76595360 7.15033090 8.99947789
Cu 12.75148493 8.75014088 7.34070576
Cu 10.95320634 7.35772174 10.76318485
Cu 10.90289608 8.93136544 12.68070797
Cu 12.60965046 7.23530036 12.53320150
Cu 12.84690906 8.84191423 10.82774126
Cu 10.90677147 7.18745758 14.29163828
Cu 10.94937955 9.17399916 16.24130760
Cu 12.75072635 7.13187919 16.33196433
Cu 12.64338785 8.81402439 14.60411311
Cu 10.90738435 10.76042771 0.14496036
Cu 10.92358405 12.77022453 1.81699213
Cu 12.76738310 10.82580318 1.89749952
Cu 12.64890888 12.48195546 18.05719900
Cu 10.80357255 10.80606029 3.57652688
Cu 11.02347013 12.68004795 5.30326614
Cu 12.73351933 10.97932270 5.34220335
Cu 12.76311055 12.70123532 3.48483419
Cu 10.93091607 10.70637052 7.04415278
Cu 10.91888340 12.37791821 9.13480889
Cu 12.92515955 10.77851742 8.83851301
Cu 12.61780049 12.53177370 7.20856152
Cu 10.85870307 10.60551052 10.94509611
Cu 10.94940986 12.45596540 12.53506400
Cu 12.69713484 10.55404220 12.72067730
Cu 12.77697302 12.62412619 10.82027853
Cu 10.96030926 10.75224070 14.51721209
Cu 10.80702670 12.48144766 16.30602372
Cu 12.83422256 10.77148849 16.30381435
Cu 12.45582809 12.59104450 14.42120308
Cu 11.09724097 14.44095349 17.92646960
Cu 10.87391643 16.06903453 1.68147863
Cu 12.77956790 14.52826577 1.77577400
Cu 12.81644383 16.27856807 18.02909243
Cu 10.81601281 14.49748605 3.70758527
Cu 10.91824609 16.57029712 5.44751458
Cu 12.62967665 14.58972744 5.39709333
Cu 12.52473885 16.50518042 3.38889825
Cu 10.94614864 14.36659617 7.07093363
Cu 10.84262680 16.00533094 8.93258419
Cu 12.42981079 14.17451990 8.93817382
Cu 12.51309216 16.14324970 7.42208398
Cu 10.97550349 14.38362291 10.97311574
Cu 10.92364086 16.31561037 12.60920830
Cu 12.64120314 14.40379310 12.66626057
Cu 12.79800815 16.22143627 10.97628101
Cu 10.86959490 14.56729956 14.27909698
Cu 10.88197202 16.32544490 16.39413901
Cu 12.89084545 14.52189061 16.38520110
Cu 12.67981895 16.30442400 14.56344866
Cu 14.55367535 0.00975109 0.23983723
Cu 14.34537853 2.01414366 1.90226957
Cu 16.38054714 0.10129500 1.94369826
Cu 16.17944850 1.78520799 0.17748536
Cu 14.29150392 18.04656838 3.51202447
Cu 14.37583709 1.95019193 5.44397417
Cu 16.21887775 0.13058463 5.35729440
Cu 16.26597023 2.06560828 3.65725726
Cu 14.45900406 0.08801738 7.08297742
Cu 14.37077329 1.58060216 8.98355496
Cu 16.21452359 18.04941171 8.84912883
Cu 16.22946232 1.81396562 7.20060302
Cu 14.39229082 0.04901086 10.77427811
Cu 14.29603381 1.83247892 12.70687163
Cu 16.14422674 0.02217285 12.40835656
Cu 16.14387816 1.71906006 10.84962935
Cu 14.34098211 0.14803986 14.51207146
Cu 14.52606113 2.16519269 15.95225086
Cu 16.13958737 0.21184797 16.14893278
Cu 16.38175308 1.98832062 14.23331242
Cu 14.36106804 3.54541900 18.00175445
Cu 14.38559252 5.22939161 1.92381755
Cu 16.37858937 3.61617212 1.71516641
Cu 16.40269140 5.46200297 0.02390892
Cu 14.41432453 3.64946003 3.76895584
Cu 14.59735972 5.32276158 5.45198704
Cu 16.54810139 3.65441921 5.34816239
Cu 16.24011864 5.41283197 3.57367826
Cu 14.43234567 3.59174196 7.28842619
Cu 14.26320978 5.34230031 9.09206631
Cu 16.26199376 3.50493091 9.00770387
Cu 16.28503740 5.36591498 7.33870450
Cu 14.24341606 3.54995890 10.83293056
Cu 14.40521847 5.33183701 12.44707759
Cu 16.29191163 3.61910546 12.48694690
Cu 16.32698113 5.30672507 10.83062240
Cu 14.54118124 3.72915669 14.26794243
Cu 14.50178239 5.38697174 16.18008321
Cu 16.39605991 3.66537759 16.20169890
Cu 16.23062768 5.33021979 14.31324828
Cu 14.47338664 6.95334501 0.10580571
Cu 14.53737237 9.03187147 1.76889123
Cu 16.17965021 7.09248203 1.70954729
Cu 16.28041901 9.13034089 18.06767851
Cu 14.29985543 7.06916069 3.65417886
Cu 14.17708583 9.04618911 5.45006504
Cu 16.43110447 7.14266831 5.21456776
Cu 16.18701361 8.82872686 3.70689170
Cu 14.45484854 7.06243569 7.14789787
Cu 14.50133825 9.01669623 9.06123146
Cu 16.29159197 7.00147162 9.06561305
Cu 16.14875514 8.95262941 7.25195743
Cu 14.47053135 7.12358873 10.94353281
Cu 14.64723830 9.07370085 12.65580747
Cu 16.34644566 7.12005746 12.53826354
Cu 16.35829676 8.86879513 10.69947021
Cu 14.62687212 7.32099326 14.42670697
Cu 14.45012480 8.95209936 16.40205189
Cu 16.37109192 7.06874348 16.13553338
Cu 16.27192767 9.08435077 14.58145372
Cu 14.48108509 10.76203543 0.05199967
Cu 14.52457860 12.66253487 1.66257999
Cu 16.41508561 10.91463715 1.83883150
Cu 16.38011951 12.66870752 0.09883311
Cu 14.75544091 11.01233189 3.58785231
Cu 14.54473887 12.72552409 5.34112623
Cu 16.33508505 10.71469553 5.40804688
Cu 16.35018925 12.75098345 3.73674925
Cu 14.63056203 10.97277250 7.06733639
Cu 14.45213484 12.61997576 8.97053782
Cu 16.31701976 10.81985651 8.96591651
Cu 16.16318675 12.74155307 7.05276648
Cu 14.46908587 10.74849637 10.88441272
Cu 14.50091053 12.36379140 12.90390914
Cu 16.26399796 10.80450826 12.60547820
Cu 16.15642408 12.58003750 10.92264871
Cu 14.56065401 10.74527350 14.44545079
Cu 14.49516098 12.66850171 16.21435253
Cu 16.28511744 10.99290481 16.49524654
Cu 16.44123087 12.48972911 14.43845477
Cu 14.75348526 14.43587730 17.97078985
Cu 14.41149637 16.35601037 2.02079076
Cu 16.13635356 14.40162221 1.91693686
Cu 16.30241702 16.17559351 18.03626553
Cu 14.39375380 14.57782828 3.70447109
Cu 14.38324001 16.48840222 5.27032925
Cu 16.22102473 14.81112609 5.39969682
Cu 16.29282240 16.20529817 3.43955596
Cu 14.43005554 14.64497905 7.14361213
Cu 14.31151392 16.43488871 8.87779067
Cu 16.18036865 14.53919844 8.98436561
Cu 16.12939322 16.32774053 7.17079525
Cu 14.42766241 14.52759348 10.65304685
Cu 14.59977061 16.04334601 12.73472626
Cu 16.38465340 14.25968001 12.66868230
Cu 16.45945926 16.04335230 10.71249341
Cu 14.55088018 14.41140382 14.48145448
Cu 14.68308627 16.37749456 16.24551930
Cu 16.47433638 14.43017149 16.11585632
Cu 16.27219818 16.45555325 14.35480677
