500
Final configuration Lattice="18.07500000 0 0  0 18.07500000 0  0 0 18.07500000" Properties=species:S:1:pos:R:3
Cu 1.09694950 9.09007549 14.15663721
Cu 16.93299881 4.35838185 3.94157843
Cu 15.70191853 15.75166924 1.14006259
Cu 13.75992310 10.19862185 1.49730338
Cu 14.70054422 14.57475346 4.77258535
Cu 10.40433812 7.09503168 0.81674751
Cu 6.12591939 5.60209411 6.33426413
Cu 1.50602671 0.47996880 1.72844213
Cu 0.19605390 12.62232466 17.21513908
Cu 17.72083704 15.94218961 15.48092953
Cu 4.49735071 11.07208427 4.14552048
Cu 14.40397501 16.59548625 14.06259996
Cu 10.07770054 15.11860328 8.92701574
Cu 13.42137291 17.47969302 7.29654215
Cu 10.43627908 5.22199356 11.56989692
Cu 6.22733941 11.29416150 17.45333379
Cu 14.45891773 2.68579115 12.53098966
Cu 12.90219183 14.21730426 12.40200814
Cu 3.64611273 8.76726301 4.56639631
Cu 1.84283727 4.14916100 5.73875319
Cu 13.95051169 16.12782640 2.67139560
Cu 14.72363938 13.69234317 2.57775453
Cu 4.11525385 3.46647464 3.92268991
Cu 11.49916148 3.97973526 13.16380675
Cu 1.11338361 16.73321758 6.44331151
Cu 4.04130060 17.95002446 0.54777445
Cu 11.13023264 3.43858636 15.26586397
Cu 16.79145070 4.01062386 12.28487647
Cu 13.08191944 11.16815712 5.69250471
Cu 13.29570817 4.59005411 16.68717063
Cu 16.16397303 7.65006800 8.94548699
Cu 4.05549383 6.94388126 13.37778446
Cu 1.93211777 0.52261617 8.39537887
Cu 14.40672017 6.01868302 4.81071532
Cu 5.32176579 17.44605018 9.17297642
Cu 15.02097796 12.84035765 12.04881944
Cu 12.24773235 13.33709306 16.57603572
Cu 1.12438181 6.57058446 1.70943219
Cu 16.46635952 12.68279866 2.90491449
Cu 15.83138182 1.56694302 16.29317513
Cu 11.41485558 4.32912474 9.88534466
Cu 9.09566097 16.59769539 3.85617853
Cu 4.04153102 14.98975442 12.96350016
Cu 6.95363246 7.43414821 16.18399062
Cu 8.07335956 15.18388498 0.06193197
Cu 8.25932005 4.72813602 4.53149100
Cu 9.02331315 10.60048896 6.34908381
Cu 9.21122732 4.00687510 7.97152314
Cu 1.04586071 10.64258373 16.37329881
Cu 14.70266776 9.22901362 3.56491671
Cu 1.84124748 6.79174999 12.58596729
Cu 15.59584280 5.45809168 8.62637681
Cu 11.24215789 10.74954221 9.95749431
Cu 17.39581315 13.64140417 4.65892464
Cu 1.02389229 3.12127477 13.58505947
Cu 14.52591450 16.30715523 9.07236846
Cu 12.68229879 9.16794575 12.35484744
Cu 0.60617201 11.77307399 4.76891745
Cu 0.11880140 15.48024350 1.50732696
Cu 1.13102570 10.01376671 10.04106571
Cu 6.69193468 3.45845943 12.90156559
Cu 15.06102301 9.95757183 17.76524152
Cu 0.80682956 12.25654832 7.77447499
Cu 4.49379648 12.92036713 10.31551076
Cu 8.88811867 9.37206266 4.42338801
Cu 8.58973878 14.43656654 4.16376177
Cu 6.65183479 11.26053679 7.05842063
Cu 10.64038392 8.69155391 3.13452267
Cu 10.57802800 12.33898539 15.38762916
Cu 4.46714154 4.15485194 8.25736339
Cu 6.89062683 12.31239926 14.28717968
Cu 0.79772282 6.14452017 6.92064532
Cu 5.73672084 14.57626328 8.06341640
Cu 7.93277479 2.53029862 10.65319314
Cu 13.51873139 14.41889660 9.98850270
Cu 10.87279989 1.89212783 13.88738653
Cu 14.50461992 7.69441728 16.62705035
Cu 12.37668048 15.83729697 6.20883630
Cu 1.71269593 11.10378834 0.85722024
Cu 6.11829557 14.77039661 13.62661209
Cu 7.36644375 1.56532220 2.58127688
Cu 14.42545358 2.02814270 10.15679248
Cu 0.77280996 8.06935549 7.98669005
Cu 8.90962383 12.67883782 5.73361429
Cu 5.28933626 9.72370202 6.45485278
Cu 16.83432547 2.10103153 9.76725871
Cu 2.61453903 13.46207858 1.92505686
Cu 3.28215569 16.49387219 5.01507239
Cu 5.32734628 5.19389597 1.19143687
Cu 5.14700002 7.39364011 6.38812468
Cu 16.20165719 11.17813470 12.65447236
Cu 15.13821680 2.96285358 8.15212913
Cu 7.75119952 15.83105407 8.44063680
Cu 0.57806717 14.52573062 6.94868142
Cu 8.74742067 10.79053319 0.22328339
Cu 15.71849889 1.73203160 0.58000051
Cu 7.09385041 15.98998281 10.80531410
Cu 8.14264219 17.92640999 17.20319674
Cu 17.52724647 1.26364051 7.53939426
Cu 3.69274258 1.15268370 2.40693695
Cu 17.75935886 9.41866512 4.48687049
Cu 14.92113518 7.46668035 14.09078009
Cu 4.92562682 10.64983964 8.44056390
Cu 2.90197977 13.76932042 8.79730348
Cu 10.59795518 5.25371480 2.02791354
Cu 0.75281950 7.44916078 10.42612271
Cu 10.80250782 5.38066795 17.24692680
Cu 17.90871376 16.21275961 11.05145036
Cu 4.91318131 17.09091655 11.85130443
Cu 2.97458384 3.77255569 12.96003262
Cu 8.57595604 11.51559630 15.68247595
Cu 8.38275876 7.78242490 13.70894878
Cu 1.66047522 3.23223059 17.95192636
Cu 3.26783085 10.01896015 2.00796003
Cu 9.14076332 0.54680194 15.26219699
Cu 3.40361946 8.06993759 0.87699387
Cu 17.34988276 9.82984409 8.79834866
Cu 4.55889452 5.02639590 17.20364272
Cu 16.91622955 11.24809790 6.80161661
Cu 4.57052447 16.53182543 2.75389113
Cu 0.51982944 9.99841173 6.82822528
Cu 0.82440286 12.76690075 12.32651744
Cu 6.29167034 4.33918232 3.56790060
Cu 1.90312097 15.13608202 2.64729442
Cu 1.52331095 5.16234555 14.66448578
Cu 3.86518617 4.50733631 15.20240944
Cu 4.78264954 8.30052578 11.11770001
Cu 4.20204865 13.01748473 6.88975845
Cu 7.03212398 6.24484541 2.88556428
Cu 0.66524708 4.14832982 2.35439798
Cu 1.59664140 17.15420385 14.78719243
Cu 10.93940517 6.07099384 7.71548753
Cu 5.27704334 7.06624028 0.01765927
Cu 2.71144793 11.44170725 12.67482122
Cu 4.62149751 2.83917571 17.81661500
Cu 3.73927481 11.90542742 0.67909982
Cu 14.13879421 4.02523286 6.41919444
Cu 13.32274286 0.51784440 4.45133299
Cu 3.29717207 17.41508644 7.10820674
Cu 17.04634790 15.74874593 3.32576657
Cu 17.05052956 9.28022466 11.05333784
Cu 2.43711650 16.68740413 0.97071616
Cu 12.04814535 14.48806506 8.17653072
Cu 9.59757220 8.14023558 6.54776526
Cu 1.07595631 8.21250908 5.62259926
Cu 2.26778947 13.19372895 5.41722690
Cu 5.18523717 12.81177989 12.61033515
Cu 6.81652300 4.38552316 10.40863833
Cu 7.49421026 15.28898987 2.26165626
Cu 0.59716144 3.84132894 7.50015540
Cu 8.00411936 10.89456380 9.36680064
Cu 4.83867180 4.76357021 12.84300157
Cu 11.60295435 15.54679547 17.16460023
Cu 16.57911531 12.57111247 8.77706003
Cu 12.90301851 9.64875128 16.53091595
Cu 7.50781817 12.08723408 11.53688329
Cu 12.65364555 0.43738384 2.33035864
Cu 1.62100940 9.34970970 3.29811292
Cu 14.05673461 8.52988834 10.42051893
Cu 9.21528911 4.22956319 13.55640117
Cu 16.48606380 1.40978982 11.77467310
Cu 4.28826014 15.56154135 17.92237585
Cu 2.80701119 7.52317039 10.57337899
Cu 6.15469212 8.86662954 4.67620568
Cu 5.65859697 3.02290954 15.56671466
Cu 5.90818137 16.21516619 1.05478101
Cu 10.27028367 10.21777359 16.67489223
Cu 0.08421628 2.49675092 4.97656512
Cu 10.13717727 12.49979411 17.63287773
Cu 13.34041214 1.53280362 7.12399893
Cu 17.12984666 5.77879820 1.96520295
Cu 11.82621297 11.02930010 0.22583309
Cu 10.08550309 2.53111294 11.85073154
Cu 0.88398997 16.66390261 9.09175610
Cu 11.98182507 12.14124495 8.50705635
Cu 2.79744389 7.18614547 3.07756892
Cu 0.11710439 11.22406969 2.67280929
Cu 8.09192152 1.62497712 12.60172494
Cu 10.33577735 1.57488033 16.63513845
Cu 1.66404544 17.37746836 4.04552377
Cu 3.70076702 0.48309537 4.69905246
Cu 12.78811420 13.66981426 5.42556622
Cu 6.28280555 1.34499343 11.14743700
Cu 7.76099845 9.47367056 16.49199872
Cu 5.96239707 13.29070381 3.93949681
Cu 10.70230650 0.58002356 7.96124527
Cu 13.39631095 11.75984048 16.12413359
Cu 7.62423631 7.13567121 5.01673339
Cu 13.78552662 5.20976765 13.13590129
Cu 17.68596217 1.92476656 2.83870259
Cu 1.68735228 12.75558066 10.33301783
Cu 14.81155897 17.93066762 1.37241513
Cu 4.29235664 2.73975303 6.39071711
Cu 2.72614904 8.93548551 6.95361825
Cu 7.44493675 4.22466928 1.46934229
Cu 5.13288986 2.83533497 1.77026920
Cu 6.14044346 13.83367824 0.21283253
Cu 5.99765107 6.69446954 11.74736507
Cu 6.80315108 0.56443862 15.37039113
Cu 10.94682509 15.88959145 2.20774342
Cu 8.24947648 2.61179892 4.76502803
Cu 9.95838291 4.71240206 5.75242211
Cu 10.06475112 16.85211230 7.12730581
Cu 3.12187322 14.95154702 6.50553652
Cu 11.39315488 13.38752341 10.30648242
Cu 2.88943573 13.13234028 16.91862925
Cu 16.24576693 1.75579629 14.06341088
Cu 2.80578220 11.41287115 8.35951374
Cu 5.06698270 8.99424143 16.24275713
Cu 8.44188775 17.22604303 13.08546126
Cu 3.44832919 7.23054877 16.69490387
Cu 0.52934575 2.47665925 11.76213103
Cu 4.79075639 2.26059285 13.72436333
Cu 12.64322262 8.46493673 14.56279041
Cu 2.27442005 2.92568147 2.10489217
Cu 6.94760449 3.17544888 17.37691481
Cu 6.52412680 6.03735403 13.91806441
Cu 14.95637172 6.65932054 2.98837373
Cu 17.86914158 0.27957577 4.92785663
Cu 8.00947570 12.80237882 17.30638346
Cu 2.91936853 6.93219069 5.67809696
Cu 4.90694769 9.51512327 0.35510187
Cu 7.22917369 5.58621247 17.68382668
Cu 16.90602638 5.65168725 16.33000179
Cu 8.21775171 6.06350920 12.19226556
Cu 1.92535886 14.66788293 13.62547874
Cu 9.26869807 16.27780650 16.04966190
Cu 12.79618101 7.63697518 1.09329339
Cu 2.89192826 2.83026225 15.74386769
Cu 4.47487711 0.90938814 7.66578048
Cu 11.24983821 17.74951576 10.77968598
Cu 1.92840008 8.99794174 17.21649904
Cu 12.37289901 16.84250352 13.18734602
Cu 0.33465619 17.64598040 17.89489795
Cu 15.63623253 9.52896230 15.00850652
Cu 11.36885419 17.51387273 15.59033733
Cu 9.19349441 6.80560460 16.68854770
Cu 12.77557436 11.26312073 11.80016922
Cu 9.30669145 3.37262158 2.94330712
Cu 15.91153878 11.54313475 16.21956830
Cu 9.73400892 11.82429805 11.26643255
Cu 9.19993871 9.23345581 8.41359862
Cu 13.65812145 0.93191489 14.61093094
Cu 7.77654924 17.55880907 1.66581553
Cu 5.63810418 0.20228585 2.53541479
Cu 11.93082520 6.12412114 13.90580376
Cu 3.57956337 15.79074945 8.80463550
Cu 12.69068214 5.76697382 0.46595095
Cu 9.12918651 3.58166190 15.92815633
Cu 12.97167455 6.65514674 9.50710773
Cu 6.42284465 14.75545280 16.19862741
Cu 10.47486322 13.31511689 3.84911467
Cu 7.57358078 8.31025135 11.49072730
Cu 7.64090686 13.05895566 1.36292197
Cu 12.54072370 13.32317518 3.27789923
Cu 10.90802026 8.42149603 16.01757987
Cu 7.25295872 9.96839237 12.72116971
Cu 6.90732927 8.94540167 1.19440558
Cu 4.22319147 1.48833344 9.77417012
Cu 15.35934376 0.70544179 8.55795849
Cu 8.17595526 10.22430169 2.27395090
Cu 14.53539507 17.41582369 16.41807188
Cu 15.32477192 9.04993183 12.68108010
Cu 9.85827578 14.16540187 1.56178932
Cu 12.68698466 8.81360141 3.73173269
Cu 15.42165400 15.12021495 12.77390704
Cu 11.75006072 15.68736751 10.90987846
Cu 13.24337322 9.70959595 7.55427599
Cu 15.89797898 14.06580696 15.50408215
Cu 15.52444041 6.37959520 6.66531707
Cu 12.68382405 4.14231878 1.87760716
Cu 14.80952275 14.47579631 17.17106431
Cu 13.20139446 3.22109439 14.93462091
Cu 0.97939041 1.69713315 16.25136027
Cu 6.03945007 1.06436298 0.03800479
Cu 0.75882487 6.99948821 17.16263575
Cu 17.01017890 8.22819918 6.95944705
Cu 16.18899079 17.46432740 12.75148291
Cu 16.34954630 16.42931722 17.19565072
Cu 9.62169120 9.39237899 12.01764901
Cu 16.49491865 16.50190245 5.83255288
Cu 4.65655993 6.07367681 9.81613404
Cu 9.87908244 16.80085962 0.44744394
Cu 5.98692882 10.81133782 15.21534995
Cu 14.64836821 3.92033424 0.71830211
Cu 2.86532804 1.24566461 17.48982810
Cu 5.87017961 9.91459368 2.71851518
Cu 11.32757804 10.47114774 13.87844218
Cu 9.37949687 0.13266159 5.44765075
Cu 17.74130199 2.48020824 18.05734073
Cu 10.72307484 7.74520009 13.24908070
Cu 3.15525825 5.42977750 11.45686214
Cu 7.48869816 16.45530971 15.07437365
Cu 11.47162501 3.47647434 7.52375305
Cu 1.56367378 0.78691360 6.08120128
Cu 3.32726967 15.16757703 15.71058032
Cu 7.20599252 0.29438442 4.56225594
Cu 9.40714471 9.70772875 14.33373759
Cu 17.50885806 5.40389165 13.99333980
Cu 10.62417384 9.84449484 1.37838131
Cu 17.39983246 8.13046894 12.95613256
Cu 4.97655417 5.80493412 4.21538565
Cu 0.26095485 14.19578820 9.22526389
Cu 15.81670577 3.82950523 16.89074516
Cu 8.50242434 6.14890890 1.14609541
Cu 7.21021847 10.99815419 4.40131738
Cu 14.58734273 12.52222486 9.92807397
Cu 7.06918088 4.15079622 8.03350260
Cu 16.78332726 16.23947379 8.18421367
Cu 13.18350887 2.18812915 0.49867203
Cu 5.44870523 7.64717782 2.62378514
Cu 5.41106404 18.00239570 5.83212781
Cu 9.52403721 6.45544716 4.00705941
Cu 16.48044166 14.17672087 6.88152234
Cu 6.54465415 3.67849694 5.95386261
Cu 3.17597868 5.00147993 1.16083686
Cu 2.47560603 10.75145753 5.44625296
Cu 3.18913267 17.24221393 10.45626932
Cu 6.34419388 12.62711496 8.75674604
Cu 11.53399680 8.12021234 7.95705073
Cu 17.65878590 3.48650543 15.90607997
Cu 2.49108735 4.93411505 3.88873732
Cu 16.14582901 14.75559949 9.93029142
Cu 7.23133848 6.80574834 9.13449663
Cu 14.03396657 12.15488952 7.67498822
Cu 13.45140654 10.49806362 9.69578744
Cu 11.66513379 9.51514537 5.52676211
Cu 5.12291658 3.39567088 11.29492420
Cu 9.46746398 4.07913550 0.35824174
Cu 5.59534418 11.89959894 1.68788067
Cu 14.96085945 8.32202224 1.06045178
Cu 6.30250299 16.44751992 3.96537373
Cu 3.64858395 10.82208849 16.60245421
Cu 17.87362743 7.26149753 15.04059950
Cu 6.08610431 8.16509636 13.93581035
Cu 17.16288888 17.37732244 1.85465681
Cu 13.09072609 4.00543040 11.22717667
Cu 7.53918204 17.54448296 6.79941304
Cu 2.86330286 13.51426420 12.01644268
Cu 14.79960956 5.61406600 15.35921939
Cu 11.39409837 7.25581636 4.96826968
Cu 16.07885680 10.49836321 2.75496955
Cu 6.71518423 9.22278442 9.51109828
Cu 12.24952651 6.75231128 16.50291340
Cu 16.89197720 13.98911115 11.88520841
Cu 0.61916959 5.04701887 11.84002459
Cu 3.08399549 13.06588534 14.39341209
Cu 8.73723345 8.22256836 2.17639741
Cu 9.25418828 16.99990237 9.33992824
Cu 17.43603118 13.24685564 14.10924058
Cu 16.64845717 11.42262497 4.70994629
Cu 12.43529821 1.66112017 11.99507433
Cu 14.35778130 16.87623238 5.31795573
Cu 9.03065464 1.96551723 7.09599381
Cu 12.25426251 1.95940579 9.14965312
Cu 3.76708693 17.76307775 13.89410053
Cu 10.80936168 12.02924940 1.80741399
Cu 8.02864608 15.68691327 5.89655192
Cu 10.94837116 12.16458533 6.73184081
Cu 11.61528180 16.73433834 8.81069110
Cu 1.27471992 11.97804998 14.60931193
Cu 2.58918838 17.11325694 16.97637541
Cu 13.66098134 10.58141330 14.15570182
Cu 16.85936611 5.96290548 10.96564034
Cu 11.73574709 4.77120348 4.09840245
Cu 13.65005729 16.69048461 11.50804243
Cu 10.04467723 2.43216557 9.55921936
Cu 13.61620956 12.30709336 0.47349299
Cu 7.41489982 0.46755181 8.89615049
Cu 15.46312943 4.07926421 10.61105402
Cu 14.91958569 10.82647749 11.04060116
Cu 0.53649396 13.16272148 1.36768732
Cu 11.38501743 2.24614543 2.80199581
Cu 9.78785826 14.23391665 16.76532292
Cu 15.64181576 17.78765487 3.64014806
Cu 3.19222600 9.08145885 9.10564010
Cu 10.35416184 18.00500021 12.76653591
Cu 17.44008952 9.09010063 16.21511119
Cu 13.04234968 6.87279450 11.55807025
Cu 2.57078238 15.14033681 10.62340744
Cu 10.16469748 11.18760700 4.51245077
Cu 9.07843464 8.57445688 18.01686531
Cu 16.09595594 17.85518213 15.01966732
Cu 10.50656231 15.76201621 5.12693670
Cu 15.15048553 12.78458414 5.66535986
Cu 14.87402597 6.07471390 18.05418258
Cu 14.94063896 12.20888822 14.30248433
Cu 9.94979590 6.16801095 14.77509174
Cu 11.10987381 10.14801852 7.64126475
Cu 6.28177795 0.05575112 13.18276393
Cu 13.96950643 14.14239565 15.01684061
Cu 14.24623043 14.79479414 7.02478207
Cu 15.01132755 6.50955182 11.84983067
Cu 9.68220788 15.94083514 11.53121864
Cu 9.84332857 12.50895198 8.61170273
Cu 15.69891101 9.72713373 5.57023189
Cu 6.82922973 1.58533251 6.74295189
Cu 0.84683504 15.31489265 4.49089721
Cu 13.26953316 18.01924888 9.56726104
Cu 8.60686180 5.81617361 7.00449933
Cu 0.58582690 10.57775566 12.39639095
Cu 3.17475970 1.32241396 12.41077135
Cu 0.86124963 6.42925354 3.80345073
Cu 6.67917141 13.26876645 6.05188267
Cu 8.02256562 14.48060331 12.08242414
Cu 4.84172417 12.83229039 15.97013082
Cu 11.70093502 17.82023728 5.87336580
Cu 7.25650857 4.95388078 15.59658567
Cu 16.48408636 4.28718488 6.21131482
Cu 12.60512634 14.03153765 1.09868347
Cu 13.33520348 16.14938126 0.46117652
Cu 9.35216236 7.41164717 10.61931146
Cu 8.20245136 13.61473238 7.80128135
Cu 12.18657124 10.87945419 3.27758520
Cu 15.20602181 9.92293341 8.07744516
Cu 13.17263097 3.07758408 4.75405094
Cu 1.07905580 0.49159360 12.91891540
Cu 14.36314598 0.71918593 12.28212379
Cu 1.85676195 14.99854438 17.99292275
Cu 5.16281010 6.56103274 15.44306120
Cu 15.71503615 2.70543401 4.90520233
Cu 15.73285752 3.75769126 14.37207392
Cu 16.57063861 3.45891022 1.80123857
Cu 18.05734261 0.52779325 14.61338225
Cu 16.91804160 7.57247585 0.46392138
Cu 8.27484912 1.77387090 0.24743472
Cu 11.92496944 17.85865257 17.77425835
Cu 11.61892871 8.28169730 10.15998687
Cu 2.56556427 2.41223556 10.64883504
Cu 1.91274400 4.75442670 9.06541126
Cu 4.71907185 10.32951648 13.26507297
Cu 2.41218861 2.65808327 8.06968487
Cu 13.16660724 4.37227854 8.35233309
Cu 15.69084908 0.47523279 6.14843173
Cu 15.89272393 17.29074204 10.56675264
Cu 12.57034859 15.57220319 4.11724248
Cu 2.39501976 1.26804033 14.51115831
Cu 12.60313619 1.66807663 16.38843751
Cu 4.10113996 4.84460120 5.93472485
Cu 13.82014324 8.25412629 5.68476582
Cu 9.07044677 12.45463340 13.49202673
Cu 14.81338120 3.91954018 3.22052361
Cu 12.85452227 5.88205193 6.31697815
Cu 5.40116577 8.04516403 8.28160761
Cu 17.36453463 14.43634877 17.81087130
Cu 15.85784065 12.87772191 0.67379927
Cu 2.88192912 8.91985321 11.99662579
Cu 10.73499079 2.24224915 5.48788311
Cu 13.10967076 15.89291656 15.71194715
Cu 17.33803923 4.82681934 0.23959990
Cu 5.81908412 1.89559862 4.37969110
Cu 3.45366168 10.69763725 10.53708828
Cu 0.11205201 4.19934496 9.87211318
Cu 8.80417334 5.37969236 9.81292032
Cu 9.54640133 1.22781319 3.50209730
Cu 1.10843996 14.04538658 15.57059042
Cu 2.19091199 5.39775426 16.71158032
Cu 17.41649425 11.87687630 10.90301093
Cu 3.20180685 6.81364994 7.87521677
Cu 4.45280222 0.81423472 15.49219020
Cu 16.89485690 8.61493669 2.35311236
Cu 8.43205224 14.44471411 14.99162915
Cu 11.55956494 3.37951818 17.83503084
Cu 13.89092808 7.46365336 7.77707755
Cu 3.73822144 14.39744965 3.94152806
Cu 0.80251744 8.82001713 1.25525481
Cu 8.67092132 12.12151638 3.01644583
Cu 14.50310744 11.75030194 3.64167330
Cu 0.85975990 0.89184793 10.51072942
Cu 14.45046119 1.79724294 3.09771506
Cu 17.60730127 6.03583954 8.80111208
Cu 2.36992365 16.71625950 12.41935665
Cu 7.80190283 2.37794757 14.81737671
Cu 8.56591944 13.70149921 10.07234763
Cu 10.64911983 13.90142219 12.32527057
Cu 12.84510309 6.56766712 2.97752381
Cu 17.36720802 10.42962657 0.17141431
Cu 0.01765739 16.18000965 13.09867052
Cu 16.56818726 7.24290958 4.44546684
Cu 4.94710280 16.28713791 7.09919124
Cu 4.63959363 14.40141190 2.06429897
Cu 3.52970959 9.53745999 14.79739440
Cu 5.66472548 10.93215206 11.12104993
Cu 1.86341651 1.93223630 4.15710983
Cu 2.18229012 11.90955864 3.49814496
Cu 10.26932560 1.62228914 0.96444110
Cu 17.49995909 10.90819440 14.68937369
Cu 5.99068078 2.25522590 8.67673166
Cu 6.32324880 13.69626948 10.81713153
Cu 2.24022794 7.31765488 15.00246615
Cu 7.23787601 8.45717566 6.89362745
Cu 4.76145122 15.21113720 10.74914456
Cu 8.78840972 0.15896685 10.93607084
Cu 9.96180331 14.61665397 6.85783446
Cu 11.07637205 17.76254823 3.48967948
Cu 5.32545620 14.92300406 5.32647032
Cu 12.51557433 12.82968075 14.12237666
Cu 5.61784563 17.12954858 16.89745293
Cu 10.96192197 15.29934780 14.50128946
Cu 5.24078614 16.20853673 14.88872073
