500
Final configuration Lattice="18.07500000 0 0  0 18.07500000 0  0 0 18.07500000" Properties=species:S:1:pos:R:3
Cu 17.94423779 17.95701119 17.88753820
Cu 17.88617199 1.67285557 1.54824024
Cu 1.81388107 17.99648637 1.95396864
Cu 1.44479543 1.65361179 17.84112246
Cu 0.11307397 0.05082150 3.69977277
Cu 0.05299480 1.70609638 5.48378822
Cu 1.81151801 18.02317196 5.40553380
Cu 1.86955225 1.71044022 3.66364894
Cu 0.14982318 0.21324239 7.28740617
Cu 18.03580629 1.95925500 8.92868774
Cu 2.02748768 0.04297021 8.96496207
Cu 1.75286506 1.83086346 7.25890791
Cu 0.00835006 0.08680151 10.82319994
Cu 0.00597153 1.89391038 12.60358998
Cu 1.88779916 18.05377195 12.54598787
Cu 1.69272835 1.78618221 10.84713744
Cu 18.02314416 0.12381901 14.42195800
Cu 17.94603706 1.87635413 16.25317713
Cu 1.77751906 0.03749624 16.07725031
Cu 1.73951513 1.72489100 14.34367278
Cu 18.00019499 3.69881009 0.26710456
Cu 0.05430982 5.43144441 1.87166609
Cu 1.72943643 3.55286813 1.86372216
Cu 1.85323918 5.47867767 0.07517603
Cu 18.07235328 3.50232572 3.77359940
Cu 0.04110283 5.46438799 5.45097430
Cu 1.83556290 3.61763860 5.44502743
Cu 1.76490920 5.34147265 3.56081484
Cu 17.98429863 3.58390460 7.06060665
Cu 18.07220730 5.26715344 8.95068962
Cu 1.68847954 3.73803864 8.98180723
Cu 1.84834296 5.34313361 7.13110282
Cu 0.07650303 3.53864207 10.87896104
Cu 0.08811197 5.55960565 12.56704203
Cu 1.94494753 3.67989911 12.69115117
Cu 1.78538525 5.35599163 10.97956969
Cu 0.00264672 3.66450279 14.53647385
Cu 0.10699668 5.54905770 16.26216300
Cu 1.65483702 3.71366315 16.46617251
Cu 1.85082849 5.26759500 14.57715441
Cu 18.07215481 7.17261812 0.07923512
Cu 0.04592724 9.08370039 1.78618902
Cu 1.90858140 7.03043911 1.84245246
Cu 1.73953484 8.83796949 0.10327327
Cu 18.03746722 7.28196341 3.55429801
Cu 18.00733868 9.12979435 5.50937737
Cu 1.65973223 7.20542823 5.36703785
Cu 1.77051046 9.05533696 3.48709072
Cu 0.17866389 7.23439443 7.12268600
Cu 0.08631069 9.11761960 8.95893839
Cu 1.63522820 7.03128933 8.91653928
Cu 1.74190270 8.98515059 7.30285631
Cu 18.00699354 7.25456072 10.93426590
Cu 17.94182273 9.00276566 12.61236941
Cu 1.84239472 7.10588061 12.84165610
Cu 1.72541760 8.91622484 10.82140359
Cu 0.09806351 7.24624999 14.45228425
Cu 18.01535403 9.10699979 16.24458216
Cu 1.88615347 7.28123878 16.35539832
Cu 1.86545021 9.08616849 14.32285704
Cu 0.03040944 10.74676621 18.04677740
Cu 18.04888720 12.74102706 1.76805252
Cu 1.71876642 11.12717691 1.96984321
Cu 1.74248566 12.57349903 0.02344324
Cu 0.07634449 10.96878115 3.75824628
Cu 18.03096215 12.66990774 5.36151301
Cu 1.67285545 10.92635896 5.48519927
Cu 1.71717221 12.81852655 3.75780449
Cu 17.98392785 10.87916880 7.33750415
Cu 17.95621263 12.75048648 9.25016142
Cu 1.79261753 10.89663570 9.10172822
Cu 1.81985701 12.82424524 7.34041909
Cu 17.92602114 10.93053599 10.94615933
Cu 18.06887069 12.58697066 12.68974595
Cu 1.80041350 10.94852504 12.43230260
Cu 1.71665933 12.50756267 10.80505882
Cu 0.03110085 10.90535579 14.48508969
Cu 0.10869971 12.74887785 16.35701644
Cu 1.82273948 10.75908767 16.24701923
Cu 1.96179897 12.59581567 14.38229116
Cu 0.02245972 14.42612678 18.02363009
Cu 0.08665064 16.13807763 1.60796679
Cu 1.99687508 14.42103943 1.76152492
Cu 1.84857417 16.04392802 18.03266573
Cu 0.06220093 14.44723983 3.48333327
Cu 0.09315336 16.40479998 5.55005286
Cu 1.88670676 14.50299034 5.66216968
Cu 1.79365912 16.07417187 3.57911088
Cu 17.92793629 14.53548618 7.25324567
Cu 0.11305476 16.29340903 8.90368236
Cu 1.79894679 14.46321010 9.06356342
Cu 1.89633472 16.27415712 7.16464203
Cu 0.12075282 14.53703330 10.90095649
Cu 0.04196219 16.25841335 12.54113626
Cu 1.81468688 14.41608600 12.60352355
Cu 1.78528119 16.33867269 10.66894383
Cu 0.02069873 14.41311318 14.47239117
Cu 0.20750698 16.16490271 16.20238106
Cu 2.00633281 14.27094995 16.21938183
Cu 1.85385504 16.28818093 14.32846835
Cu 3.48113810 0.09268688 17.95472877
Cu 3.40932447 1.64656736 1.76891344
Cu 5.47522593 18.03339780 1.85946941
Cu 5.31884333 1.82178661 0.00375493
Cu 3.63975451 17.77604931 3.81017117
Cu 3.55083269 1.83350818 5.44838603
Cu 5.62057669 0.16071070 5.44467403
Cu 5.30226626 1.95138618 3.60401954
Cu 3.74846415 0.08826741 7.06049901
Cu 3.64440923 1.87735209 8.90558225
Cu 5.34969716 0.07517952 8.99849939
Cu 5.74700743 1.81888015 7.14101611
Cu 3.77658474 17.98481790 10.81767946
Cu 3.72124796 1.86182913 12.73624660
Cu 5.46286805 0.05810453 12.55998782
Cu 5.52916191 1.76681886 10.66539724
Cu 3.69340558 18.03467908 14.26880010
Cu 3.45788580 1.88161909 16.22458617
Cu 5.33634306 0.10374603 16.37710524
Cu 5.36586844 1.83020175 14.49315287
Cu 3.64186780 3.70249861 0.05419843
Cu 3.58959567 5.19749776 1.81430536
Cu 5.33570842 3.48069386 1.76113875
Cu 5.41807238 5.47013001 17.96210038
Cu 3.62218792 3.49004975 3.67658395
Cu 3.58181969 5.51663121 5.52369257
Cu 5.33110008 3.65257407 5.61387925
Cu 5.39183963 5.35328875 3.47883795
Cu 3.63963600 3.76857079 7.29648111
Cu 3.72461537 5.29042038 9.13865371
Cu 5.51088950 3.61058819 9.11934838
Cu 5.62164545 5.45089153 7.17767671
Cu 3.54103821 3.43940225 10.81895393
Cu 3.82406443 5.43818815 12.79167477
Cu 5.43141735 3.59758529 12.75600636
Cu 5.39740211 5.35150238 10.97425184
Cu 3.43981275 3.57655621 14.63405864
Cu 3.56929972 5.54286195 16.24287234
Cu 5.32630754 3.42209202 16.22119850
Cu 5.42316016 5.41368387 14.53766202
Cu 3.66338420 7.24563110 0.05508308
Cu 3.55078232 8.96789793 1.80850689
Cu 5.48710449 7.12140531 1.69456031
Cu 5.49090655 9.05695926 17.99043306
Cu 3.56123511 7.26469527 3.57244351
Cu 3.41288243 9.18942767 5.23670102
Cu 5.40060735 7.23642552 5.38203054
Cu 5.37198581 9.15522954 3.61920926
Cu 3.65506158 7.17851514 7.19403552
Cu 3.36937747 8.93774392 9.09047315
Cu 5.53428040 7.34595483 9.07463212
Cu 5.36682539 9.16216262 7.25980993
Cu 3.39903311 7.05810257 11.01180782
Cu 3.70786429 9.12447846 12.59074915
Cu 5.46915240 7.21571495 12.74565826
Cu 5.34572262 8.95726815 10.82713645
Cu 3.66641497 7.23320748 14.44428714
Cu 3.66492380 9.17398742 16.42821362
Cu 5.55899357 7.27904856 16.09800869
Cu 5.39241004 9.24144481 14.47547251
Cu 3.49968341 10.87196414 0.19951478
Cu 3.72416946 12.66339263 1.96456776
Cu 5.37779033 10.84817587 1.63861755
Cu 5.31287818 12.67778874 18.06170949
Cu 3.54362986 11.14288872 3.75050404
Cu 3.66474258 12.84557591 5.57682422
Cu 5.27419842 10.92897082 5.50556781
Cu 5.43160840 12.55730307 3.72436692
Cu 3.44023560 10.71043228 7.27465280
Cu 3.56082355 12.53251307 8.86888923
Cu 5.43469933 10.71922593 9.13009131
Cu 5.59256028 12.59226800 7.48032191
Cu 3.57020487 10.84777634 10.69224543
Cu 3.69754239 12.60388999 12.62835226
Cu 5.50361731 10.79870963 12.32476794
Cu 5.25243918 12.70087908 10.72362928
Cu 3.75062526 10.86848991 14.46782590
Cu 3.51947370 12.43738991 16.45633795
Cu 5.44309610 11.00225487 16.37459967
Cu 5.56603208 12.52903272 14.24685788
Cu 3.78335151 14.52507018 0.05130515
Cu 3.74459276 16.26634261 1.95656180
Cu 5.33474587 14.52725916 2.01733404
Cu 5.45136309 16.15689532 18.03369511
Cu 3.74470841 14.40261127 3.78045642
Cu 3.77531120 16.08662761 5.40998726
Cu 5.59230030 14.60146940 5.52549509
Cu 5.54790286 16.34343683 3.58990886
Cu 3.79339454 14.41081061 7.29212994
Cu 3.59159938 16.32585522 8.69812284
Cu 5.61269374 14.56985092 9.11012078
Cu 5.43623587 16.41879901 7.14667769
Cu 3.53790815 14.41567703 10.80290459
Cu 3.49340584 16.13857702 12.45841405
Cu 5.38503711 14.57072336 12.57224459
Cu 5.49124533 16.23965362 10.74131898
Cu 3.72366226 14.25187224 14.47377126
Cu 3.62975323 16.40483034 16.11659195
Cu 5.36341616 14.29766570 16.21875396
Cu 5.47487450 16.32916418 14.63532341
Cu 7.13802151 18.05633356 0.03680970
Cu 7.12666005 1.95859899 1.71705095
Cu 8.99565040 17.90630837 1.91638229
Cu 9.05215279 1.63548029 0.15228309
Cu 7.28667303 0.10511273 3.75624316
Cu 7.34194223 1.79251503 5.41790009
Cu 9.57371441 0.11605743 5.42053107
Cu 9.01013922 1.73923649 3.70867206
Cu 7.37490138 0.02335231 7.21941012
Cu 7.33030581 1.84503833 8.99972334
Cu 9.14382345 18.05601406 9.04123601
Cu 9.16323076 1.75956784 7.28890910
Cu 7.28165952 18.04466585 10.73049128
Cu 7.16951938 1.76020609 12.65227391
Cu 9.06471054 0.02756785 12.48053911
Cu 9.02949896 1.70064758 10.87688375
Cu 7.24461576 18.05174464 14.46421092
Cu 7.20339155 1.85628599 16.18799898
Cu 9.18490210 18.04769755 16.34154897
Cu 9.06599679 1.88361070 14.39595125
Cu 7.07064097 3.71252996 18.01382072
Cu 7.23581284 5.25713227 1.71007598
Cu 9.05678251 3.59055481 1.89294926
Cu 9.06831200 5.31701949 0.05150374
Cu 7.24952580 3.55957757 3.71219792
Cu 7.29262621 5.36492192 5.27265658
Cu 9.01978855 3.65218414 5.57918222
Cu 8.91182446 5.37055562 3.67221255
Cu 7.35242526 3.58589751 7.32268385
Cu 7.21123722 5.56327329 8.97433092
Cu 8.97427069 3.51532187 9.00032671
Cu 8.84426021 5.44489568 7.20605828
Cu 7.19662639 3.59939665 10.75768559
Cu 7.16223784 5.34743022 12.68119720
Cu 8.86756966 3.47118299 12.52195190
Cu 8.82166761 5.46920075 10.84779689
Cu 7.44497096 3.65332609 14.38112137
Cu 7.24671349 5.35392516 16.20228518
Cu 9.17993566 3.58525394 16.18740806
Cu 9.07803027 5.43195739 14.30606198
Cu 7.33403469 7.09224175 17.99896807
Cu 7.35571638 9.10862766 1.98467380
Cu 9.23062055 7.25070530 1.70171999
Cu 9.03915935 9.04408960 18.00704916
Cu 6.94706200 7.19004483 3.52184836
Cu 7.01015691 9.02665409 5.54597172
Cu 8.81117860 7.42418744 5.29555911
Cu 8.97940549 9.02347383 3.66375571
Cu 7.27435932 7.30979166 7.15815867
Cu 7.11772212 9.18369132 8.89883080
Cu 9.07116420 7.42479017 8.94383863
Cu 9.15347581 9.37766013 7.08144295
Cu 7.21789833 7.24435466 10.68265411
Cu 7.09648332 9.06925758 12.69927923
Cu 8.98067604 7.20309133 12.48760759
Cu 9.02759465 8.95588196 10.99250170
Cu 7.44514053 7.21976186 14.42235788
Cu 7.33612685 8.92183930 16.23088571
Cu 9.04884056 7.02179008 16.32663232
Cu 9.08908923 9.05769244 14.31639819
Cu 7.18964697 10.86702930 18.02833192
Cu 7.10793103 12.49399225 1.98001604
Cu 8.99517189 10.86340240 1.90575588
Cu 9.04405667 12.50343254 0.08271516
Cu 7.12567891 10.80086706 3.82172085
Cu 7.16989650 12.61150161 5.52246600
Cu 9.04225468 10.85981827 5.23133962
Cu 8.87279108 12.69844067 3.80342908
Cu 7.15599814 10.91956637 7.13557564
Cu 7.31378614 12.71134272 9.16129499
Cu 9.10151934 10.83809741 9.03897092
Cu 9.01649652 12.78960104 7.29288443
Cu 7.33173397 10.86879156 10.69270221
Cu 7.24019640 12.75472986 12.48791651
Cu 8.89956064 10.85888512 12.61026888
Cu 9.03042526 12.73271804 10.93586588
Cu 7.20449876 10.74439445 14.44146480
Cu 7.23947089 12.71196852 16.16523865
Cu 9.01007134 10.80103136 16.15555039
Cu 8.97646583 12.73489492 14.66839171
Cu 7.13973176 14.17116065 0.01716456
Cu 7.21703630 16.11992158 1.80803675
Cu 8.96838372 14.41017069 1.92053160
Cu 9.00369426 16.21004532 0.16000056
Cu 7.26611925 14.37306868 3.73145178
Cu 7.33642291 16.39478013 5.33807756
Cu 9.13107270 14.50347527 5.56994603
Cu 9.16508411 16.37189314 3.69424966
Cu 7.29531402 14.53067723 7.23626548
Cu 7.33968575 16.43484311 9.04078418
Cu 8.94634615 14.52172382 9.06844027
Cu 9.09027406 16.39109592 7.11312681
Cu 7.32137287 14.43464142 10.88645963
Cu 7.22714351 16.27716433 12.51936568
Cu 9.01624295 14.51417291 12.67530038
Cu 9.12517350 16.20106019 10.87991589
Cu 7.04861321 14.48438988 14.35505018
Cu 7.14327412 16.19454615 16.36244608
Cu 9.11438202 14.62882823 16.33807263
Cu 9.00089118 16.15442902 14.41427166
Cu 10.89931982 17.87370390 0.10613981
Cu 10.99485162 1.78147023 1.85999367
Cu 12.79016607 17.83677517 1.80450476
Cu 12.56574379 1.62769902 17.88972807
Cu 10.98875624 18.05738546 3.51883573
Cu 11.06138563 1.98428804 5.43854567
Cu 12.61055136 17.88905193 5.34716902
Cu 12.80814280 1.75831648 3.68799634
Cu 11.04818087 18.01712945 7.31220831
Cu 10.81050766 1.75731644 8.96880231
Cu 12.81729720 17.96047980 8.99495796
Cu 12.79237071 1.73927567 7.14512440
Cu 10.96082087 0.01761454 10.91270589
Cu 10.90532544 1.86164185 12.36333607
Cu 12.69873025 0.12575574 12.64803828
Cu 12.59009224 1.92733795 10.73513940
Cu 10.69452194 0.09875513 14.36146662
Cu 10.76044548 1.81250077 16.37217240
Cu 12.62194973 17.98905721 16.27214565
Cu 12.56540440 1.76692365 14.61579035
Cu 10.83828950 3.71243829 0.16949814
Cu 10.67623542 5.44140682 1.85387495
Cu 12.85972304 3.69996661 2.01231436
Cu 12.72248524 5.47880328 0.19873988
Cu 10.97710079 3.64053757 3.63304118
Cu 10.85415047 5.28921613 5.48023258
Cu 12.96663915 3.57211057 5.41007064
Cu 12.67608163 5.34941327 3.61390147
Cu 10.95573436 3.44173998 7.33690874
Cu 10.69027190 5.30828153 9.11526269
Cu 12.76477337 3.55912152 9.01836105
Cu 12.57391289 5.25115216 7.32499528
Cu 10.71461161 3.50220241 10.77343350
Cu 10.85644654 5.24505175 12.93068604
Cu 12.83566129 3.54403186 12.70771897
Cu 12.38611354 5.59380019 10.83264354
Cu 10.93449784 3.45441037 14.22778694
Cu 10.84143394 5.27722674 16.26984854
Cu 12.50740904 3.62911965 16.32016334
Cu 12.52383190 5.33666847 14.59046261
Cu 10.86938441 7.18448317 17.85863951
Cu 10.75964863 9.16354105 1.63328624
Cu 12.58120129 7.09840607 1.89356913
Cu 12.67374195 9.02564702 17.99571784
Cu 10.73990316 7.22456353 3.58427158
Cu 10.98028987 9.06475366 5.32262035
Cu 12.47293173 7.03586901 5.44389007
Cu 12.58332336 9.04594217 3.42007972
Cu 10.64335040 7.22793341 7.13689362
Cu 10.97922793 9.04443992 9.09114971
Cu 12.43322074 7.17190807 8.94186649
Cu 12.65643445 9.07013076 7.25258926
Cu 10.80356971 7.33144579 10.74954481
Cu 10.96531418 9.14627705 12.62594258
Cu 12.59743697 7.11906625 12.72837450
Cu 12.51459492 8.99260696 10.87475091
Cu 10.86193395 7.03456940 14.62297286
Cu 10.76647725 9.09392565 16.31076057
Cu 12.80573825 6.94896900 16.41958540
Cu 12.57772379 8.82328784 14.57547846
Cu 10.78373938 10.72295144 18.02422959
Cu 10.77152094 12.61276369 1.87032683
Cu 12.55175712 10.90853018 1.86894170
Cu 12.64608603 12.42238608 17.94041089
Cu 10.74043942 10.78185388 3.57398627
Cu 10.86519009 12.63084198 5.44252301
Cu 12.60602939 10.91858184 5.64098759
Cu 12.61216324 12.77751875 3.45778736
Cu 10.85952376 11.12821480 7.37282327
Cu 11.01172622 12.70393476 9.23326748
Cu 12.64187506 10.80494073 9.24164063
Cu 12.68562076 12.43776499 7.40636893
Cu 10.60532742 10.81405999 11.01775000
Cu 10.79725669 12.76141842 12.73868644
Cu 12.81026927 10.70066880 12.53804048
Cu 12.61103193 12.64402275 10.98300706
Cu 10.86518603 11.00275241 14.28329312
Cu 10.63430925 12.41388831 16.41434424
Cu 12.53539357 10.78209231 16.12461704
Cu 12.60986808 12.58952723 14.32965645
Cu 10.83078220 14.20180970 0.03157356
Cu 10.84236611 16.37141436 1.83889748
Cu 12.48985374 14.53287302 1.73486390
Cu 12.60382704 16.25212219 17.96351605
Cu 10.76711097 14.46966605 3.55722564
Cu 10.90807806 16.11003349 5.44019219
Cu 12.58525886 14.30109631 5.63014542
Cu 12.59513074 15.98793090 3.68315392
Cu 10.72797605 14.42773638 7.38311128
Cu 10.87141533 16.18227942 9.08492642
Cu 12.82903985 14.39109413 9.16790462
Cu 12.66169316 16.25379875 7.13577433
Cu 10.91242439 14.45094941 10.81552048
Cu 10.85173275 16.35698001 12.74041152
Cu 12.55749689 14.29423498 12.62875362
Cu 12.69684631 16.29578218 10.96541789
Cu 10.80812470 14.34126045 14.43947445
Cu 10.81392989 16.21074171 16.07117311
Cu 12.44030135 14.38358987 16.21049660
Cu 12.55015504 16.24868864 14.34419264
Cu 14.45134063 17.82163251 18.00229110
Cu 14.52141718 1.41377753 1.73286189
Cu 16.25539220 17.80591380 1.63070113
Cu 16.13804633 1.71067819 17.83183015
Cu 14.39095332 17.80098773 3.50010401
Cu 14.63731300 1.74599801 5.22799661
Cu 16.35837884 17.95328193 5.29423696
Cu 16.36848336 1.71433736 3.46170352
Cu 14.41375318 0.06453320 7.00210563
Cu 14.45646351 1.65930016 8.92119488
Cu 16.31859912 0.22029558 8.98850246
Cu 16.24575895 1.74154102 7.03937398
Cu 14.49352178 0.04046324 10.84187912
Cu 14.57153657 1.86954256 12.82264355
Cu 16.21287983 0.07132419 12.69473168
Cu 16.18348979 1.88143154 10.90024104
Cu 14.26068685 17.94316629 14.62290142
Cu 14.33696998 1.83617386 16.16387674
Cu 16.17285232 0.05758325 16.10051020
Cu 16.31594725 1.82707507 14.46100693
Cu 14.16703206 3.65908102 0.04664485
Cu 14.52717424 5.50386566 1.79475946
Cu 16.13555501 3.48970581 1.67581627
Cu 16.35733989 5.44128053 0.03277299
Cu 14.57154107 3.71570897 3.57188345
Cu 14.61402512 5.51038171 5.41371260
Cu 16.23696768 3.73373493 5.40186241
Cu 16.33495499 5.35935577 3.60747453
Cu 14.47781084 3.79260853 7.17391868
Cu 14.48891435 5.41076783 8.96322652
Cu 16.25815354 3.52842107 9.15994230
Cu 16.32527330 5.44515424 7.14361630
Cu 14.50410791 3.47428382 10.96988001
Cu 14.33535360 5.61851040 12.59061314
Cu 16.20489011 3.89736545 12.61838244
Cu 16.23574509 5.53651341 10.90611735
Cu 14.55182671 3.79741866 14.38695652
Cu 14.43890341 5.35316777 16.24163527
Cu 16.42697220 3.69174140 16.40996244
Cu 16.22832075 5.54034548 14.50560159
Cu 14.47616489 7.22904455 0.05702811
Cu 14.67203127 9.11611046 1.97106955
Cu 16.35914595 7.24986301 1.84621494
Cu 16.31328595 9.08258637 17.99193825
Cu 14.52548772 7.27873934 3.54582579
Cu 14.35020779 8.65936467 5.40250241
Cu 16.34565617 7.09091221 5.33723899
Cu 16.40021020 9.25085441 3.55906717
Cu 14.29765059 7.02201156 7.30060740
Cu 14.37750177 8.93725261 8.99302260
Cu 16.18003260 7.27123987 9.00909173
Cu 16.17614990 8.85340600 7.27889722
Cu 14.41404261 7.25676837 10.89790375
Cu 14.62575369 8.97926195 12.63060406
Cu 16.24014410 7.17255093 12.69526831
Cu 16.22040170 8.97811598 10.85049661
Cu 14.34213231 7.19862698 14.52087330
Cu 14.42591153 8.88819063 16.23032883
Cu 16.27316189 7.25445122 16.14550559
Cu 16.20627257 9.12246240 14.46678587
Cu 14.48815502 10.76683728 0.14203861
Cu 14.22423106 12.76053546 1.81953462
Cu 16.48042188 10.99122582 1.93601900
Cu 16.41273944 12.61803760 18.07124507
Cu 14.41090954 10.98386410 3.60993448
Cu 14.28791584 12.58065860 5.57113296
Cu 16.20496384 10.95990447 5.66879666
Cu 16.28979281 12.60754619 3.68756599
Cu 14.48652939 10.69951812 7.46296094
Cu 14.48718999 12.68355955 9.08557407
Cu 16.28875068 10.82562108 9.10443053
Cu 16.16556145 12.69172456 7.22946198
Cu 14.45794269 10.71982172 10.76603280
Cu 14.54447126 12.52896661 12.69468885
Cu 16.34378785 10.89546294 12.80194649
Cu 16.22942034 12.59171817 10.88830767
Cu 14.36922843 10.81661955 14.57453373
Cu 14.49019385 12.68108699 16.25789119
Cu 16.24286134 10.86073143 16.42054892
Cu 16.31074889 12.69700511 14.39124669
Cu 14.37539469 14.25557851 18.04383323
Cu 14.39299337 16.07036231 1.78674695
Cu 16.12296759 14.28941699 1.71623145
Cu 16.21956981 16.03191764 18.03920238
Cu 14.40263039 14.35243704 3.77471183
Cu 14.55367070 16.27449563 5.46695815
Cu 16.41201931 14.50322653 5.45221380
Cu 16.28105373 16.15352270 3.63176626
Cu 14.40386355 14.45013216 7.32408728
Cu 14.37946309 16.23962009 9.09645779
Cu 16.24126471 14.53077364 9.08210673
Cu 16.30342423 16.39138869 7.42878321
Cu 14.50643472 14.45830487 10.97123010
Cu 14.39357959 16.13920971 12.72908379
Cu 16.23073606 14.44169377 12.48787706
Cu 16.36337237 16.25313687 10.83676506
Cu 14.44986707 14.39975246 14.39070529
Cu 14.33382244 15.99714979 16.15035869
Cu 16.27550864 14.31348807 16.22135457
Cu 16.54006574 16.28986184 14.50292959
