500
Final configuration Lattice="17.60000000 0 0  0 17.60000000 0  0 0 17.60000000" Properties=species:S:1:pos:R:3
Ni 17.31398435 0.06191354 17.53075992
Ni 17.19950723 1.92277059 1.65625322
Ni 1.65789756 0.07643386 1.61693816
Ni 1.88729800 1.86606132 0.08207610
Ni 17.53730414 17.56633313 3.32223172
Ni 0.08293163 1.50423920 5.22989924
Ni 1.92553550 17.44111396 5.34370988
Ni 1.84405550 1.33883857 3.58510842
Ni 17.42896756 17.26797770 7.11865529
Ni 0.01724507 1.60626607 8.65702307
Ni 1.91851518 17.25321706 8.44104177
Ni 1.70887328 1.52202148 7.07206443
Ni 0.06100293 0.15458535 10.42756480
Ni 17.58241480 1.45457526 12.31881138
Ni 2.16755994 0.02548721 12.36909224
Ni 1.78235236 1.71087986 10.41738994
Ni 17.36950776 17.38404322 14.07385317
Ni 17.51649839 2.02193126 15.95673851
Ni 1.46411921 17.45846087 15.69799094
Ni 1.49187535 1.62497063 14.15771158
Ni 0.05970799 3.62517013 17.59001582
Ni 0.16083532 5.19233551 1.61865975
Ni 1.57441649 3.33921733 2.17898438
Ni 2.05049371 5.11874427 17.43108856
Ni 17.52305848 3.28476841 3.65631205
Ni 0.24189479 5.23089511 5.24751688
Ni 1.64506748 3.39800432 5.14664549
Ni 1.81436265 5.38046242 3.31899511
Ni 0.10834800 3.33907452 6.82209518
Ni 17.57838427 5.17318957 8.81255192
Ni 1.57292969 3.51928306 8.56858117
Ni 1.65176987 5.28056536 7.07263006
Ni 17.50862386 3.30246592 10.72419795
Ni 0.06067622 5.23472716 12.11452062
Ni 1.82813411 3.30621326 12.56246081
Ni 1.92137090 4.67667025 10.59538368
Ni 0.26315348 3.69233734 14.08473979
Ni 0.06795880 5.40489585 15.96022294
Ni 1.90452087 3.56434960 15.64014592
Ni 2.08464615 5.33409959 13.76966472
Ni 0.04862686 6.90914078 17.54787399
Ni 17.47120529 8.94168287 1.85371003
Ni 1.50376714 6.92336396 1.55968572
Ni 1.63482303 8.76683708 17.40117886
Ni 0.10069472 6.88138648 3.39850347
Ni 17.45103877 8.73916936 5.12577537
Ni 1.74457648 7.14649289 5.23658618
Ni 1.51934190 8.84607227 3.45122614
Ni 17.55715712 7.12675218 7.08319405
Ni 17.19713197 8.81603128 8.84870748
Ni 1.61141790 7.04583263 8.87403077
Ni 1.76583998 9.07474301 6.76291555
Ni 17.40349181 6.94074268 10.54206561
Ni 17.48017280 8.38083335 12.54721014
Ni 1.62894945 6.91667247 12.02419724
Ni 1.85129604 8.76694829 10.65706263
Ni 17.58275493 6.78780952 14.16323474
Ni 17.52569173 8.71823141 15.90452823
Ni 1.72431291 6.98041789 15.84601846
Ni 1.38912704 9.13167684 14.27808100
Ni 0.15507837 10.88877598 0.11255323
Ni 17.33078211 12.31391689 2.01709388
Ni 1.67991681 10.92956156 1.82657796
Ni 1.73971304 12.83587385 0.08730901
Ni 17.46146404 10.57457929 3.59405132
Ni 17.42791017 12.31700921 5.17524911
Ni 1.66021882 10.69750927 5.04364958
Ni 1.42960098 12.49996135 3.53809301
Ni 17.43832819 10.36977843 6.78613642
Ni 17.48654388 12.17288990 8.68950568
Ni 1.68106160 10.56423625 8.60653573
Ni 1.53856996 12.02702943 6.82196959
Ni 17.57603390 10.80666039 10.75201961
Ni 17.23047161 12.52761609 12.39919888
Ni 2.06619485 10.56818948 12.06712562
Ni 1.96425548 12.41485013 10.53519485
Ni 17.56161959 10.86165475 13.82977231
Ni 0.21208981 12.69093923 15.46840562
Ni 1.37562908 10.82054851 15.83386108
Ni 1.99657302 12.68536167 14.02261314
Ni 17.44321410 14.10482886 0.20619630
Ni 0.02410802 15.85601853 2.00868314
Ni 1.69018194 14.26809561 1.79983449
Ni 1.76106460 15.70705883 0.09094991
Ni 0.10412160 14.23686570 3.78887610
Ni 17.52567722 16.00703217 5.20537261
Ni 1.70238737 14.01819076 5.45027946
Ni 1.63102516 16.22135116 3.63325750
Ni 17.50020342 13.90322180 6.86790033
Ni 17.48831765 15.75161501 8.78049905
Ni 1.97067822 14.24663567 8.69756009
Ni 1.71760194 15.73352893 6.77352067
Ni 17.53277897 14.22052741 10.50218642
Ni 0.04220158 16.07177460 12.21071974
Ni 1.66133261 14.12618254 12.14681156
Ni 1.68118615 15.99095766 10.42055202
Ni 0.16246568 14.45876004 14.25453183
Ni 17.08691920 15.87172959 15.83305289
Ni 2.06035553 14.16230801 15.79144123
Ni 1.93227733 16.06506948 14.05323572
Ni 3.43174326 0.04142944 17.50394884
Ni 3.51672555 1.72839392 1.83881626
Ni 5.26614202 0.29624011 1.59758307
Ni 5.18016597 2.00993580 17.58374190
Ni 3.59864779 17.51624055 3.63714432
Ni 3.35396581 1.82254657 5.55881508
Ni 5.29373085 17.59196359 5.27753423
Ni 5.39058759 1.85114639 3.39205943
Ni 3.87907679 17.54044838 6.92918659
Ni 3.51886312 1.61788745 8.90086485
Ni 5.37114851 0.08332864 8.66293517
Ni 5.34960163 2.02603864 7.12398227
Ni 3.61031243 17.49775365 10.44356800
Ni 3.82420154 1.78169082 12.43960382
Ni 5.32353765 0.13142982 12.47392396
Ni 5.41300649 1.54085110 10.66695895
Ni 3.80339448 0.12679893 14.14513858
Ni 3.61926586 1.96251913 15.74495074
Ni 5.33548294 0.08504035 15.96893557
Ni 5.40614908 1.70361949 14.21585297
Ni 3.28736523 3.48665719 0.31182932
Ni 3.56449673 5.45504342 1.76168742
Ni 5.14351080 3.61550224 1.74216641
Ni 5.09199180 5.10192282 17.46028432
Ni 3.35158200 3.15998880 3.74201369
Ni 3.10403337 5.31994187 5.24983542
Ni 5.09509895 3.62132170 5.22697260
Ni 5.35427799 5.23196236 3.54034479
Ni 3.50206423 3.41746573 7.22696327
Ni 3.61066485 5.07267227 8.97582403
Ni 5.11905853 3.59580380 9.12329923
Ni 4.99554507 5.25647967 7.12608431
Ni 3.50941570 3.19761608 10.65983998
Ni 3.95850560 5.34402821 12.18880040
Ni 5.68333379 3.71819867 12.50619593
Ni 5.36901910 5.46274495 10.45644915
Ni 3.76263406 3.53311276 13.82642952
Ni 3.61829930 5.04864868 15.47519677
Ni 5.51757744 3.47117225 15.77159648
Ni 5.49538027 5.45665868 14.05366500
Ni 3.68799252 6.88450015 17.26101162
Ni 3.07972894 8.61515432 1.73357313
Ni 5.02013128 7.05156884 1.65793280
Ni 5.03820012 8.87009300 0.22250942
Ni 3.31713059 6.98463797 3.68732123
Ni 3.66202246 8.93978660 5.29519824
Ni 5.42672368 7.00020246 5.44155130
Ni 5.09481915 8.40673389 3.60381573
Ni 3.48009370 7.20373394 7.09530640
Ni 3.40725522 9.09709031 8.65435467
Ni 5.32262376 7.01021139 8.79700683
Ni 5.26899033 8.98950955 7.13340731
Ni 3.54011221 7.02847140 10.40211682
Ni 3.57119360 8.88628822 12.33265239
Ni 5.12842880 7.22216315 11.93631248
Ni 5.29751807 9.00733525 10.25792175
Ni 3.24148902 7.51483545 14.13772452
Ni 3.56472641 9.05339498 16.07291735
Ni 5.17252827 6.80962399 15.70541050
Ni 5.23285853 8.63268012 14.17186124
Ni 3.35174407 10.63537307 0.33779339
Ni 3.33136990 12.56670913 1.70629945
Ni 5.13506317 10.74026678 1.79576563
Ni 5.38967371 12.67978026 0.51397381
Ni 3.38231372 10.60239156 3.53026660
Ni 3.30650670 12.39791753 5.14215966
Ni 5.41891754 10.97968236 5.38147666
Ni 4.87649004 12.42347338 3.48296272
Ni 3.44696825 10.75936358 6.84823643
Ni 3.64179612 12.15674074 8.69294834
Ni 5.47114865 10.74442076 9.05691143
Ni 5.17492519 12.40221295 7.12556671
Ni 3.78825352 10.61897477 10.52485358
Ni 3.52275096 12.23960773 12.32926576
Ni 5.65279632 10.65595987 12.39388955
Ni 5.36335402 12.43286963 10.63412638
Ni 3.70529402 10.52834021 14.27555004
Ni 3.84756133 12.36811831 15.76040221
Ni 5.51016277 10.94125693 16.43011361
Ni 5.42906901 12.16753447 14.16797946
Ni 3.79148430 14.19245786 17.47697525
Ni 3.64142872 16.16899463 1.75745409
Ni 5.23050134 14.45615075 1.80743249
Ni 5.32533815 15.89576896 17.47272521
Ni 3.38473542 14.35176946 3.38589898
Ni 3.65577327 15.73978331 5.10056546
Ni 5.04171054 14.10136954 5.21424297
Ni 5.28031712 15.85176578 3.43433937
Ni 3.39899347 14.01265341 6.97736042
Ni 3.87405430 15.67305714 8.85137975
Ni 5.37739535 14.03231016 8.93379170
Ni 5.29722751 15.78114705 6.83625621
Ni 3.49721714 14.09690513 10.59959784
Ni 3.72383225 15.65866713 12.26696355
Ni 5.45290092 14.05954369 12.49128439
Ni 5.43253372 15.71118531 10.74234187
Ni 3.84269243 14.15365368 14.18358161
Ni 3.22056389 15.86554774 15.83065888
Ni 5.68685614 14.18109219 16.12898420
Ni 5.24820841 15.84885846 14.40992451
Ni 7.35414556 0.13803582 0.31769012
Ni 6.99090395 2.05108522 1.78623639
Ni 9.05570134 17.54305850 1.73799967
Ni 8.73452095 2.06330681 0.07889797
Ni 6.87181705 17.57467500 3.57008933
Ni 6.86859724 1.78373904 5.27222070
Ni 8.77111850 17.41618575 4.97090911
Ni 8.77108857 1.71519956 3.42497264
Ni 7.21055337 0.10724248 6.81611943
Ni 6.89285330 1.63507536 8.83379588
Ni 8.60016103 17.55381454 8.86465439
Ni 8.73685209 2.15172634 7.07421370
Ni 6.94800070 0.03296994 10.43893104
Ni 6.88366170 1.89010619 12.35390913
Ni 8.90771677 17.37246488 12.30551071
Ni 8.77212249 1.54068757 10.77589874
Ni 6.85045408 0.15076145 14.13061877
Ni 7.06147750 1.70148941 15.85139220
Ni 8.69458645 0.17883543 15.58819841
Ni 8.96730683 1.68193835 13.78670690
Ni 7.10367441 3.52988767 0.02042718
Ni 7.13875684 5.56568121 1.87261420
Ni 8.89233817 3.37024817 1.75109070
Ni 8.71348653 5.22355576 17.59343329
Ni 7.02003040 3.53423771 3.46462140
Ni 7.00825281 4.98116232 5.09508801
Ni 8.58737955 3.23519412 5.18214934
Ni 8.89947094 5.40576643 3.61109511
Ni 6.70788803 3.86044695 7.06781329
Ni 7.17147286 5.28751388 8.83176576
Ni 8.88855583 3.83608781 8.65796216
Ni 8.82549065 4.96842641 6.47850725
Ni 7.15677359 3.43370653 10.44229949
Ni 7.46355749 5.27357471 12.39295802
Ni 9.16785701 3.47748269 12.08598879
Ni 8.81534443 5.67139893 10.49575450
Ni 7.19555823 3.23858866 14.05568216
Ni 7.45529149 5.26205420 15.44476213
Ni 8.94518428 3.14745071 15.58765064
Ni 9.12273817 4.96961050 13.97630958
Ni 6.94084255 6.93726579 0.17631339
Ni 7.33353211 8.63373644 2.05353289
Ni 8.94298341 6.99008902 1.56957751
Ni 8.93855485 8.56522027 0.00656671
Ni 7.02536041 7.07370871 3.68206494
Ni 6.70862275 8.87786068 5.27449553
Ni 8.70928888 7.09436632 5.39042311
Ni 8.57853043 8.89539628 3.95447707
Ni 6.98976073 7.02013577 7.06662431
Ni 7.22235069 8.78647888 8.63931610
Ni 8.78137906 7.05112955 8.69619419
Ni 8.97033376 8.81387882 7.17289031
Ni 7.23033483 7.40304191 10.46706609
Ni 7.20765531 8.82888194 12.40609967
Ni 9.01942153 6.88181025 12.50446310
Ni 8.74387257 8.89435862 10.63410117
Ni 7.06091904 7.05746526 13.90796634
Ni 7.17205255 8.32058862 15.75856675
Ni 9.02852487 6.90707485 15.73952321
Ni 8.85008546 8.66685920 13.87211890
Ni 6.96797862 10.31183129 0.54787914
Ni 7.33433194 12.44223759 1.72862499
Ni 8.92480955 10.54262808 2.12716252
Ni 8.99968010 12.33685954 17.49602686
Ni 6.99533981 10.56060779 3.39033011
Ni 6.64044500 12.67495839 5.39184954
Ni 9.02247674 10.54934171 5.53828326
Ni 8.55519173 12.27528730 3.67538591
Ni 7.14586707 10.64466198 7.09566661
Ni 7.30642017 12.25906322 8.87569581
Ni 8.67895594 10.44936275 8.94222362
Ni 8.80921405 12.40923599 7.30992848
Ni 7.20140974 10.57541666 10.68435612
Ni 7.16391156 12.38541179 12.48563408
Ni 8.93862952 10.67671729 12.51369154
Ni 8.85916140 12.38801851 10.79257629
Ni 7.06998948 10.38899834 14.29539864
Ni 6.96883889 12.43570373 16.20280563
Ni 8.72894346 10.15215843 15.96408162
Ni 8.55790987 12.29581757 14.42336683
Ni 7.16851720 14.21890415 0.16692952
Ni 7.25082923 15.81703732 1.98228414
Ni 8.97351426 14.09857499 1.76298830
Ni 9.09539253 15.83281550 17.45708222
Ni 7.13403916 13.89505547 3.52306634
Ni 7.08347517 15.73800608 5.12748950
Ni 8.65569973 13.77476741 5.35881514
Ni 8.85976520 15.43566486 3.39998607
Ni 7.08055810 14.06793427 7.36145296
Ni 6.77060245 15.74465191 8.79295558
Ni 8.91911261 14.35375405 8.71949318
Ni 8.63999903 15.67537825 6.80252582
Ni 7.03734233 13.99612641 10.51523759
Ni 7.01968036 16.02699486 12.75358329
Ni 8.64643130 14.15519963 12.32777879
Ni 8.84123020 15.96117447 10.56689233
Ni 7.22463026 14.01119642 14.15768267
Ni 7.08794608 16.06158924 15.99045883
Ni 8.65357670 14.20977917 15.92224351
Ni 8.65478693 16.07147571 14.04988062
Ni 10.46704569 0.11412869 17.42464117
Ni 10.69874485 1.60068278 1.54660126
Ni 12.40270169 0.12391560 1.89859831
Ni 12.34498526 1.57328340 0.18323078
Ni 10.51298517 17.49774008 3.46183482
Ni 10.27381276 1.59449450 5.16895824
Ni 12.19274454 0.00803641 5.12102684
Ni 12.38357016 1.81546464 3.60902567
Ni 10.18378224 0.15864451 6.92363714
Ni 10.43581105 1.89349524 8.61342626
Ni 12.36796254 17.46917208 8.45297142
Ni 12.01807031 1.54697334 6.76639121
Ni 10.30346213 0.05225991 10.44292971
Ni 10.70890890 1.62753520 12.09947650
Ni 12.77029169 0.20353757 12.27660866
Ni 12.28314320 1.55830256 10.37009102
Ni 10.78415852 17.43443119 13.99124873
Ni 10.54955433 1.51142076 15.56619756
Ni 12.31003022 17.30235479 15.61527985
Ni 12.21048717 1.67134874 14.05109203
Ni 10.47509737 3.55401954 0.02961815
Ni 10.54436092 5.24821874 1.81392175
Ni 12.37527930 3.65257511 1.64052617
Ni 12.29966504 5.07410025 17.36154362
Ni 10.72458190 3.53122004 3.64149726
Ni 10.77736807 5.43005122 5.43839597
Ni 12.51157776 3.84550330 5.42973735
Ni 12.24538187 5.29159866 3.55522043
Ni 10.91846843 3.63154662 7.03930912
Ni 11.00142531 5.38844713 8.99316612
Ni 12.34435484 3.27044746 8.65923566
Ni 12.43162508 5.41310944 7.09370950
Ni 10.59480737 3.35161549 10.14854105
Ni 10.59041427 5.18039636 12.06860348
Ni 12.05425589 3.24763802 11.80096151
Ni 12.74844939 5.11864147 10.37515206
Ni 10.72467992 3.46966599 13.76316547
Ni 10.59445665 4.87036821 15.64359833
Ni 12.19531061 3.13594511 16.19672990
Ni 12.54899373 5.25630838 13.96883421
Ni 10.46929239 6.61802122 17.36057923
Ni 10.43405619 8.70924390 1.83153324
Ni 12.38001830 6.71588227 1.69162658
Ni 12.39938319 8.62175777 0.24207160
Ni 10.59601113 7.15102604 3.44576986
Ni 10.51889998 8.96637355 5.37625720
Ni 12.42214184 7.17070152 5.17500555
Ni 12.47201258 8.50631842 3.32688276
Ni 10.54223576 7.06295505 7.25646905
Ni 10.59027277 8.94510128 8.70255747
Ni 12.61994519 7.20706610 8.79659594
Ni 12.25121761 8.72519308 6.90232477
Ni 10.66782607 7.10596569 10.55685350
Ni 10.82398234 8.66309083 12.41009591
Ni 12.54105349 6.87340042 11.99306698
Ni 12.40063027 9.09697695 10.53906425
Ni 10.75839364 6.75458305 13.97896960
Ni 10.66063823 8.58062985 15.74787431
Ni 12.34568264 6.86019009 16.11126339
Ni 12.48230976 9.05291558 14.24764150
Ni 10.50144698 10.42699869 0.25596131
Ni 10.55058768 12.22142455 2.09771936
Ni 12.46784755 10.44772780 2.03040791
Ni 12.14480681 12.02540326 0.16058221
Ni 10.56065739 10.58264998 3.63151245
Ni 10.80597229 12.38896664 5.34786448
Ni 12.31183648 10.49030870 5.29209305
Ni 12.18166339 12.17245740 3.66541080
Ni 10.57602413 10.82286358 7.03307572
Ni 10.67351720 12.47144204 8.93938893
Ni 12.19189520 10.89969907 8.70585649
Ni 12.32590194 12.41989564 7.17926316
Ni 10.38583137 10.47525192 10.69692035
Ni 10.35872093 12.60465224 12.52044461
Ni 12.30404646 10.68835471 12.44193247
Ni 12.37616470 12.23484155 10.83605693
Ni 10.58008230 10.11792691 14.06832169
Ni 10.57879906 12.22821277 15.97566149
Ni 12.23648581 10.25614068 16.33122113
Ni 12.00161401 12.39390384 14.12680277
Ni 10.42191789 14.14462022 17.46469764
Ni 10.79084341 15.84720333 1.48858717
Ni 12.18996538 13.60480429 1.88668914
Ni 12.19957031 15.99102291 17.35492661
Ni 10.70862986 13.92095348 3.65066806
Ni 10.48087846 15.79550629 5.11715173
Ni 12.40078428 14.11635130 5.46685975
Ni 12.07783600 15.66579881 3.48289653
Ni 10.51486310 14.48650027 6.89651802
Ni 10.56339657 15.99012140 8.84376903
Ni 12.10930795 14.26527306 8.95480911
Ni 12.14773283 15.87855311 6.97533850
Ni 10.62256956 14.32193067 10.74097597
Ni 10.51332827 15.70526080 12.37714945
Ni 12.33237489 14.09569207 12.32942712
Ni 12.02391860 16.03611868 10.69578044
Ni 10.06881942 14.31474033 14.26834012
Ni 10.41613945 16.18450132 15.72987855
Ni 12.11117846 14.00843084 15.90796124
Ni 12.14098793 15.43684583 14.00545179
Ni 14.16626598 17.27860151 17.37531519
Ni 13.96163150 1.65993031 1.79928920
Ni 15.72671168 0.21121245 1.74238454
Ni 15.68607455 1.76304865 17.25106514
Ni 14.02902487 0.02282692 3.64756852
Ni 13.96959733 2.19015337 5.71406466
Ni 15.91735595 17.39655747 5.34940254
Ni 15.59200644 1.68860252 3.48062253
Ni 14.13705803 17.54742360 7.02630947
Ni 13.97767732 1.70439733 8.79948954
Ni 15.78816009 0.08036740 8.71227483
Ni 15.76628478 1.53969827 6.96379560
Ni 14.23943559 0.23816681 10.57561292
Ni 14.30354428 1.81125152 12.24049373
Ni 15.58772989 17.42074899 12.32132319
Ni 15.80416731 1.93556357 10.37943864
Ni 14.14721084 0.05923374 14.06522562
Ni 13.81997100 1.77244890 15.73193828
Ni 15.73294214 0.20968168 15.59775026
Ni 15.83144119 1.66433175 13.98199031
Ni 14.30928513 3.43731668 17.55350141
Ni 14.15105810 5.21668315 1.81832766
Ni 15.75731249 3.57007989 1.74930893
Ni 15.89959599 5.41430969 17.36883181
Ni 13.92604042 3.48121222 3.59461531
Ni 14.44473883 5.08309163 5.33503762
Ni 15.91479096 3.38752748 5.24132662
Ni 16.21866394 5.13310045 3.52460825
Ni 14.29183764 3.57536492 7.38062636
Ni 14.22397713 5.62749774 8.59116300
Ni 16.09168069 3.57332336 8.84798134
Ni 15.87241808 5.22120684 7.07862071
Ni 13.91459919 3.26574960 10.53623725
Ni 13.99333807 4.88193159 12.18341823
Ni 16.12231234 3.56016138 12.49954071
Ni 15.32990132 5.04532500 10.44626907
Ni 14.09708980 3.53025250 13.96822572
Ni 13.92216141 5.07778608 15.74587203
Ni 15.76401573 3.51714925 15.62397822
Ni 15.88313435 5.46491965 13.99642491
Ni 14.00387665 6.80224457 0.19035261
Ni 14.35829859 8.65686730 1.70153101
Ni 15.91888321 7.13773790 1.97257859
Ni 15.93079188 8.61220789 0.11453665
Ni 14.12720533 6.67764261 3.63347139
Ni 14.02076327 8.80986568 5.32603274
Ni 15.71084555 7.01176670 5.19976389
Ni 15.50691211 8.78279683 3.59430521
Ni 14.20855373 6.82176854 6.66587044
Ni 14.01119395 9.34729854 8.91112283
Ni 15.82563499 7.33985059 8.30156156
Ni 15.90181384 8.90037212 6.80967988
Ni 14.19725961 7.10971289 10.23604672
Ni 14.24524841 8.94301416 12.50185907
Ni 15.73510044 7.18421938 12.52728738
Ni 15.77185839 8.74115326 10.76646615
Ni 13.99042501 6.97079203 14.35648392
Ni 14.09929488 8.66212137 16.03043369
Ni 15.75167966 7.07939032 15.86884446
Ni 16.30066922 8.96011065 14.19238043
Ni 14.18285009 10.84646334 0.01528197
Ni 14.17745619 12.27579337 1.93740184
Ni 15.68662631 10.54521213 1.97720356
Ni 15.98932601 12.35483678 0.17807709
Ni 13.95565520 10.54514754 3.73848736
Ni 14.01071756 12.73209684 5.19639049
Ni 15.71776803 10.67150507 5.43621880
Ni 15.74912995 12.16174520 3.71688044
Ni 13.80181850 10.72553903 7.06712357
Ni 14.09848425 12.38404862 8.80590689
Ni 15.82278942 10.60640837 8.41424149
Ni 15.85841879 12.33874150 6.95126302
Ni 14.26955040 10.73240469 10.61497872
Ni 14.13069826 12.24835345 12.41072997
Ni 15.88686708 10.56554867 12.35552142
Ni 15.93822877 12.51061310 10.71761219
Ni 14.10310058 10.67463837 14.37895942
Ni 13.82668083 12.49036102 16.10073780
Ni 15.97801653 10.87239635 15.71750602
Ni 15.78929343 12.23726977 14.03091291
Ni 13.83770084 13.89585269 0.38170898
Ni 13.82739103 15.98797914 1.82132792
Ni 15.84912789 14.16229610 1.96925865
Ni 15.84512716 15.75973190 0.41067363
Ni 14.03909565 14.05129684 3.45902887
Ni 13.78326953 15.91832308 5.17270083
Ni 15.99002033 14.15011227 5.23063628
Ni 15.78608432 15.94999870 3.39525220
Ni 14.35242228 14.20089101 6.99289144
Ni 14.07709634 15.99363224 8.95660367
Ni 15.80849002 13.72479723 8.78422599
Ni 15.73305232 15.70364708 7.09498539
Ni 13.99084369 14.16315614 10.61706104
Ni 13.94727590 15.90491701 12.14976262
Ni 15.74733171 14.25487701 12.25529446
Ni 15.66981355 15.98885316 10.43914582
Ni 13.75812834 13.56329081 14.14683963
Ni 13.98083473 15.40113538 15.75843567
Ni 15.92458129 13.83548640 15.99958536
Ni 15.80444025 15.49142744 14.00965922
