500
Final configuration Lattice="20.25000000 0 0  0 20.25000000 0  0 0 20.25000000" Properties=species:S:1:pos:R:3
Al 0.02282058 20.18163788 20.21685565
Al 0.06436748 2.01686624 2.01048051
Al 1.99999942 0.02021711 2.00519979
Al 1.99528017 1.99266343 20.22568401
Al 20.19481222 20.24181172 4.13296431
Al 0.01794248 2.06721873 6.20518103
Al 2.12854801 0.11205802 6.12323596
Al 2.06510553 1.99565751 4.15761597
Al 0.11002221 0.06098073 8.08167045
Al 0.09453624 1.95994915 9.98974226
Al 2.06125681 20.20509710 10.11728733
Al 2.11016024 2.11978399 8.05952151
Al 20.23843023 20.19994779 12.18736333
Al 20.20612842 1.91064186 14.20750947
Al 2.11157699 20.08219643 14.29720807
Al 1.99379303 2.02540548 12.15116321
Al 0.00320428 20.18262735 16.20618630
Al 0.00645695 1.87674427 18.26830591
Al 2.14650107 0.00306278 18.31612873
Al 1.99712451 1.94562673 16.18562072
Al 0.00860342 4.13685006 0.04943598
Al 0.04696959 5.98608595 2.02588557
Al 2.10518154 3.98953173 2.04637729
Al 2.08028412 5.90317395 20.19662061
Al 0.14586630 3.99912118 4.04525564
Al 20.24889362 6.04201786 6.09280877
Al 2.07123231 4.00224301 6.03252541
Al 2.12015578 5.98971620 4.07701760
Al 0.01968639 4.13903257 8.06181538
Al 20.23447894 6.01041428 10.23412199
Al 1.90962374 4.08978695 10.17536330
Al 2.00949981 6.05874505 8.15348106
Al 20.16067003 3.87117394 12.13847035
Al 20.15644158 5.89930561 14.12884834
Al 1.89394283 3.85739616 14.18257650
Al 1.81715527 5.91958748 12.27072365
Al 0.09048792 3.99427304 16.24137079
Al 0.01528070 5.98463353 18.21749312
Al 2.12271876 3.91562046 18.17622629
Al 1.98765919 6.10865428 16.18940649
Al 20.21093620 8.06284657 20.24550872
Al 0.00033768 10.17737563 1.90554478
Al 2.15480991 7.97378248 1.86505491
Al 1.96957116 10.15426759 0.02279457
Al 0.08054673 7.98682167 3.97017942
Al 0.09285118 9.98122193 5.99486731
Al 2.03658336 7.98330790 6.16086037
Al 1.95834634 10.11098496 4.00268318
Al 0.00352570 8.06689961 8.11280784
Al 20.18465693 10.09668853 10.11839859
Al 2.04047254 8.06647429 10.14502931
Al 1.97699350 10.03286984 8.08598725
Al 20.01653472 8.06089714 12.14657754
Al 20.17864174 10.12780401 14.17036903
Al 1.82856172 8.10760279 14.09716205
Al 1.96232175 10.07702330 12.11292335
Al 0.03666044 8.07077343 16.14717952
Al 20.24721911 10.12895433 18.35830046
Al 1.97523047 8.07294172 18.25639737
Al 1.95347550 10.07546077 16.15403274
Al 20.15960885 12.14332304 20.21050468
Al 0.05912471 14.08374760 2.08770400
Al 2.00183347 12.12830493 2.04536690
Al 1.97112103 14.17576870 20.21548554
Al 0.09551629 12.12107934 4.17203669
Al 0.04294525 14.28847363 5.95336614
Al 2.06676195 12.19383739 6.09900973
Al 2.07440595 14.22463687 3.96837900
Al 0.04040888 12.15695216 7.97821111
Al 0.01583980 14.19927619 10.07207417
Al 2.01423446 12.20079800 10.18031813
Al 2.05493151 14.09679998 8.06440412
Al 20.21799418 12.16714615 12.03474250
Al 20.18313968 14.12278992 14.09709444
Al 1.88200584 12.20396731 14.11511337
Al 1.90529268 14.21732385 12.22902251
Al 0.05159470 12.12273519 16.21361156
Al 0.14757458 14.28728952 18.22956187
Al 1.92273546 12.11185976 18.27578193
Al 2.02197849 14.11681325 16.18210999
Al 20.24966232 16.28879139 0.00842353
Al 0.08018569 18.27405216 2.05781911
Al 2.12627781 16.14702368 1.95476111
Al 2.03385476 18.22676005 0.03980740
Al 0.05867790 16.17104820 3.96584206
Al 0.05261033 18.24316115 6.10552520
Al 2.05295034 16.22914818 6.03447390
Al 2.00698898 18.29380011 4.10070638
Al 0.11705045 16.25861223 8.07049925
Al 0.17255547 18.35658081 10.07298990
Al 1.95703312 16.29813727 10.15456511
Al 2.15520610 18.27265832 8.11038418
Al 0.08428568 16.22875981 12.15840293
Al 20.22814553 18.23424594 14.24971684
Al 2.00046680 16.30730324 14.24767787
Al 2.14779140 18.20255760 12.14630751
Al 0.00421166 16.17190955 16.27976780
Al 20.14366291 18.24284248 18.21344604
Al 2.12124159 16.24089501 18.22303575
Al 2.04090735 18.20408291 16.27346285
Al 4.06850994 0.06369843 0.09652123
Al 4.05676992 2.01279663 2.08666617
Al 6.10319606 20.21773812 2.07289038
Al 6.11619218 1.92874788 0.07849463
Al 4.05876757 0.11708190 4.02275371
Al 4.07774266 2.13094044 6.14033509
Al 6.03574839 0.06971909 5.98263270
Al 6.20185787 2.04196823 4.02712473
Al 4.08276577 0.08162135 8.01019581
Al 3.97530905 2.03873509 10.23451019
Al 6.02469644 0.06995982 10.15961473
Al 6.13453753 2.07987529 8.10388270
Al 4.07200141 0.12233583 12.23154387
Al 4.02954735 1.94093500 14.37786684
Al 6.06842991 20.15256926 14.15146491
Al 6.11148478 2.04372811 12.33267943
Al 4.06619189 0.05387009 16.32564372
Al 4.06460581 2.02484755 18.23213062
Al 6.18482804 20.13623984 18.20918893
Al 6.12944628 2.07273323 16.23824016
Al 4.17734582 3.94309622 0.04477480
Al 4.02640888 5.95744081 1.92695622
Al 6.17135524 3.95611734 1.93224606
Al 6.16331876 6.05580227 20.14173906
Al 4.13618763 4.02602936 4.02816998
Al 4.02187814 5.96386478 6.12017837
Al 6.13157177 3.96629178 6.09451142
Al 5.97913363 6.09037693 4.03037676
Al 4.11552910 4.03056966 8.13878609
Al 3.95774802 5.92704035 10.20984535
Al 6.11043685 4.00480697 10.10766691
Al 6.08949105 6.05797068 8.11503066
Al 4.12862138 3.99943848 12.22215946
Al 3.87516854 6.05379979 14.17476063
Al 6.15990544 4.15086639 14.22275149
Al 6.07784932 5.96524210 12.13833070
Al 4.02141486 4.10580138 16.14588246
Al 3.99884156 6.02817770 18.19626129
Al 6.08070214 3.99042439 18.20365937
Al 6.12433257 6.05669319 16.23059693
Al 4.02809938 8.07813969 20.06128116
Al 3.94590109 10.06155819 2.01450568
Al 5.96718448 8.01935085 1.96551448
Al 6.00950884 10.21706255 0.00149280
Al 3.92967633 8.08033120 3.97582393
Al 3.91788962 10.12851272 6.08864764
Al 6.13599299 8.10814987 6.07654339
Al 5.95852165 10.16064539 4.10577422
Al 4.07359023 8.01426699 8.24347451
Al 3.92065875 10.05897489 10.02208516
Al 6.07538697 8.06746724 10.22299918
Al 6.09403642 10.08953693 8.07911629
Al 4.00916621 8.01691889 12.12996974
Al 3.98954517 10.11161227 14.09483936
Al 5.95320944 8.05285691 14.17126810
Al 5.91067377 10.08650993 12.15069950
Al 3.99558246 8.11786104 16.17493089
Al 3.92778067 10.26739209 18.18582437
Al 6.06390703 8.10277628 18.09400098
Al 5.95509764 10.23210550 16.16066237
Al 4.06918831 12.22005241 20.21693428
Al 4.01571264 14.06912072 1.98304572
Al 5.97315359 12.05602429 2.05425225
Al 6.04923730 14.19421324 20.19714290
Al 4.00483793 12.20334958 4.12581235
Al 4.06188443 14.21983223 6.04412224
Al 6.07427051 12.03085190 6.22102730
Al 6.01339478 14.17742657 3.98608368
Al 4.10703827 12.09373006 8.24712410
Al 4.02402508 14.18895277 10.10795500
Al 6.06346156 12.10147036 10.21815095
Al 6.01131445 14.13900996 8.10947242
Al 3.93992550 12.21492746 12.23000618
Al 4.14199588 14.21590520 14.30502511
Al 6.02620527 12.16701065 14.15404684
Al 6.04436908 14.17778957 12.13499314
Al 3.95123464 12.15539504 16.13595855
Al 3.99886949 14.18620464 18.20890492
Al 6.11163560 12.17938125 18.33125697
Al 6.07051384 14.18838523 16.31485295
Al 4.03891433 16.22437669 20.22574450
Al 4.04236496 18.21434816 2.01934857
Al 6.10503737 16.18115185 2.00028788
Al 6.02206315 18.15138337 0.04993531
Al 4.09538410 16.23518936 4.06082216
Al 4.03815203 18.33696780 6.01273949
Al 6.02534174 16.20018661 6.08376276
Al 6.10110226 18.23120658 4.10011855
Al 4.02653328 16.23962755 8.04642197
Al 4.10755134 18.22053182 10.13149381
Al 6.05207353 16.20050353 10.13011765
Al 6.16704762 18.29352024 8.07156721
Al 3.99127495 16.09294465 12.17224426
Al 4.15120332 18.16621318 14.27837547
Al 6.13951927 16.15637583 14.11659441
Al 5.89880438 18.18344951 12.19345079
Al 4.11040817 16.20666853 16.31777626
Al 4.13782550 18.20326883 18.21651774
Al 6.10770475 16.31243469 18.13008633
Al 6.15669408 18.34332243 16.20511347
Al 8.19330469 0.00627025 0.03370819
Al 8.19792480 1.95483763 2.05288983
Al 10.12851150 20.24693722 2.06819782
Al 10.13427134 2.08001842 20.19648927
Al 8.11710484 0.01607931 4.09904343
Al 8.17509085 2.20709094 6.07593650
Al 10.22682432 0.03874934 6.11858860
Al 10.23798207 2.07654489 4.02495047
Al 8.01913209 0.00718424 8.06141526
Al 8.10165268 2.16409489 10.12323045
Al 10.02614385 0.07894085 10.08790467
Al 10.15813971 1.99769398 8.05972121
Al 8.10688253 20.12235104 12.10976552
Al 8.10812461 2.01222695 14.25702798
Al 10.15879989 0.03972620 14.18619350
Al 10.04679381 2.04173830 12.15065770
Al 8.14745775 0.02004428 16.20309154
Al 8.11765752 2.04417368 18.28475052
Al 10.12686125 0.09525209 18.19861156
Al 10.24269380 2.09069780 16.18623216
Al 8.13251928 4.13790247 0.02633197
Al 7.98407501 6.04646530 2.11074288
Al 10.24256669 3.99530827 1.98684838
Al 10.15061394 6.06580107 0.07765904
Al 8.23612692 4.05679868 4.05688792
Al 8.22492488 6.07396384 6.14849594
Al 10.25113613 3.91957039 6.10763538
Al 10.11286235 6.05805522 4.05203632
Al 8.18445771 4.22532680 8.07884548
Al 8.20841714 6.10605137 10.18917588
Al 10.21131161 4.07416088 10.12169917
Al 10.15650187 6.24693934 8.19935594
Al 8.12514032 4.15709013 12.20722394
Al 8.11759585 6.06947299 14.22389997
Al 10.17583717 4.07137751 14.07192604
Al 10.10559889 6.20235810 12.26481251
Al 8.19234687 4.02302781 16.13077880
Al 8.12503757 6.11258714 18.16199467
Al 10.07899036 4.03856755 18.25236549
Al 10.02302445 6.03142904 16.25047631
Al 8.11724743 8.11151875 20.20001002
Al 7.93010852 9.95814835 2.06000519
Al 10.00412700 8.03020309 2.11068486
Al 10.18475188 9.99884993 20.24850720
Al 7.98233844 8.05638786 4.03005423
Al 8.09398940 10.12779855 5.90313129
Al 10.08348782 8.24058621 6.07204191
Al 10.04637174 10.14780782 3.89671402
Al 8.07829750 8.13195418 8.20205788
Al 7.98202085 10.18095256 10.19528561
Al 10.18091991 8.31887654 10.16834266
Al 10.01825440 10.20762407 8.14239439
Al 7.94864574 8.21240422 12.25151057
Al 7.93370498 10.15285588 14.08896741
Al 10.19376471 8.09522677 14.20416171
Al 10.08391327 10.22385372 12.08436865
Al 7.98511412 8.16379154 16.13290492
Al 7.93205848 10.06236493 18.28283048
Al 10.09862491 8.12083131 18.13650934
Al 9.98046521 10.12061638 16.09098309
Al 7.98277832 12.24559058 20.23601351
Al 8.14212100 14.10612046 2.01587326
Al 10.17456098 11.99412290 1.96622540
Al 10.19623946 14.23004425 0.06215990
Al 7.98711849 12.13204919 3.97997242
Al 7.91664065 14.16817416 6.13893110
Al 10.08620870 12.08839653 5.96410265
Al 10.05997699 14.16124692 4.05245681
Al 7.96242932 12.04204005 8.17008152
Al 8.09056068 14.18418239 10.10623212
Al 10.06670370 12.11928055 10.09323036
Al 10.16419623 14.05948266 8.22502120
Al 8.13852543 12.15621105 12.14419795
Al 8.15259039 14.17067930 14.14199763
Al 10.26196383 12.09098924 14.13758804
Al 10.12607172 14.20561975 12.21515673
Al 8.05110919 12.15454359 16.11956826
Al 8.16750640 14.23604349 18.27829984
Al 10.15262646 12.07742733 18.19214276
Al 10.11016979 14.11503113 16.20155865
Al 8.01903204 16.22896076 0.04699579
Al 7.99350789 18.27449257 2.10270908
Al 9.99831714 16.25276028 2.04007770
Al 10.17108336 18.25440167 0.11601185
Al 8.04634733 16.19651744 4.09099501
Al 8.10881872 18.23858626 6.14761709
Al 10.00053045 16.07751537 6.07036913
Al 10.09179675 18.23713157 3.92419574
Al 8.11378413 16.20814102 8.16992183
Al 8.06400200 18.15183121 10.14774358
Al 10.13936833 16.20425715 10.19972276
Al 10.11064262 18.16009545 8.19362232
Al 8.06936702 16.20954738 12.04966591
Al 8.02759184 18.23828846 14.14896616
Al 10.16596231 16.21639768 14.04914782
Al 10.18024858 18.33063559 12.12772408
Al 8.26821551 16.22755233 16.12082975
Al 8.24064513 18.16976431 18.19227571
Al 10.26970534 16.13928832 18.13295312
Al 10.08697139 18.23102746 16.18815492
Al 12.04664474 0.16536412 20.18363481
Al 12.17778962 2.06792780 1.98870504
Al 14.16920238 0.04949182 2.01578833
Al 14.21878855 1.94133158 20.20657081
Al 12.24843563 0.03997095 4.01976334
Al 12.30653407 2.01603039 5.98241012
Al 14.14082911 0.01291975 6.18021043
Al 14.18649748 2.10657994 4.04153136
Al 12.18498481 0.04519940 8.10851186
Al 12.15841785 2.05873600 10.12455540
Al 14.20286574 20.21521828 10.19256136
Al 14.14443799 2.11480189 8.00277392
Al 12.11336679 0.03460872 11.99264419
Al 12.10388667 2.04237929 14.07460242
Al 14.06510635 0.13675670 14.17120578
Al 14.14879715 2.04960018 12.11705656
Al 12.11573057 20.24156777 16.20623767
Al 12.25356523 2.11524587 18.23132703
Al 14.12551932 0.03276784 18.14869255
Al 14.07163529 2.15804088 16.24705873
Al 12.28047265 3.97893138 0.00982777
Al 12.20746280 6.17235652 2.03636528
Al 14.21910117 4.11468221 2.10159112
Al 14.16409280 6.06959889 0.09160464
Al 12.18557509 4.12017843 3.98886121
Al 12.10794308 6.21900247 6.14431234
Al 14.20194655 4.10875504 5.90889472
Al 14.15916796 6.19713018 4.05274688
Al 12.07248226 4.07233579 8.10995453
Al 12.12751049 6.13265517 10.13207172
Al 14.05197316 4.02820316 9.98721335
Al 14.20577488 6.07984545 8.09295855
Al 12.15637125 4.16130117 12.08380053
Al 12.23187654 6.06084987 14.16847261
Al 14.05934278 4.15499263 14.25555950
Al 14.20202111 6.09900446 12.14456119
Al 12.09050607 4.14183837 16.29005318
Al 12.18659252 6.16867373 18.36943339
Al 14.23267052 4.15156045 18.30696867
Al 14.19607120 6.09729857 16.19854097
Al 12.16868448 8.04922019 0.05401642
Al 12.12276056 9.87903478 2.01712559
Al 14.26051600 8.04301829 2.07772935
Al 14.30156089 10.07027231 0.11787590
Al 12.06615171 7.99865581 4.03036663
Al 12.16732426 10.03928573 6.00573627
Al 14.20343645 8.11958942 6.08246367
Al 14.16388737 10.03443622 4.13331402
Al 12.16882163 8.21625777 8.09249900
Al 12.22646470 10.23611953 10.15175254
Al 14.10154454 8.12928376 10.11122148
Al 14.16925507 10.13361495 8.15777430
Al 12.15081729 8.15120489 12.23892742
Al 12.20091487 10.16101448 14.06957485
Al 14.12683367 8.06586778 14.19190500
Al 14.24876327 10.22361084 12.04944178
Al 12.08855276 8.15959362 16.28636246
Al 12.13745669 10.11353203 18.35101276
Al 14.12275825 8.12646713 18.33726904
Al 14.10468191 10.10242652 16.16877964
Al 12.22135767 12.00430166 0.07212079
Al 12.19858382 14.02365683 2.03561165
Al 14.19349845 11.94699950 2.08822798
Al 14.25775219 14.18293808 0.03502450
Al 12.10512233 12.01907333 3.97548383
Al 12.13839488 14.08432445 6.08072101
Al 14.18106377 12.18555651 6.15735489
Al 14.03373335 14.16058281 4.12186020
Al 12.08804884 12.03662363 8.08809549
Al 12.16915389 14.21251461 10.14615809
Al 14.14630710 12.16498477 10.05819645
Al 14.29129048 14.18030213 8.15097738
Al 12.11434481 12.21490892 12.13038318
Al 12.15651850 14.20578084 14.26512761
Al 14.23505778 12.12942169 14.14985561
Al 14.30568925 14.23046399 11.98417248
Al 12.18525501 12.16186052 16.22476063
Al 12.10375922 14.07445885 18.37539579
Al 14.22486210 12.16783272 18.26297116
Al 14.19540976 14.16773378 16.15379587
Al 12.19001772 16.26902146 0.04605106
Al 12.22347847 18.20636469 1.99741051
Al 14.13745136 16.22717017 2.01982749
Al 14.19648434 18.34041824 20.17716992
Al 12.07270160 16.20325831 4.04891736
Al 12.14240405 18.28390988 6.01686304
Al 14.17926823 16.19444521 6.09558886
Al 14.16101050 18.22505519 4.11580381
Al 12.02309747 16.22584207 8.01738281
Al 12.12125353 18.13374525 10.10885799
Al 14.06411010 16.31584766 10.01129561
Al 14.15978517 18.29519260 8.13422809
Al 12.17309158 16.07759759 12.23547383
Al 12.11019179 18.26806162 14.08163871
Al 14.20063425 16.09155435 14.24433641
Al 14.17799956 18.19731340 12.27375861
Al 12.18001836 16.18406571 16.24155747
Al 12.08493499 18.39782259 18.21498417
Al 14.24440427 16.26768162 18.24196443
Al 14.16093143 18.26257630 16.25002399
Al 16.21864923 20.21388335 20.24670583
Al 16.20170181 2.05271161 2.02580048
Al 18.23119654 0.03348434 2.03114283
Al 18.19006970 2.06183857 20.20035794
Al 16.16394980 20.19188548 4.02302568
Al 16.12637664 1.98316916 6.11191176
Al 18.24048095 20.19392417 6.05561107
Al 18.24490128 1.98702588 4.08699467
Al 16.12174366 0.02383278 8.13807818
Al 16.09557678 2.02435789 10.00610515
Al 18.16056200 0.09023898 10.17145381
Al 18.28903348 1.89414027 8.11905027
Al 16.09341115 20.21918628 12.12732855
Al 16.03442260 2.06076752 14.15307037
Al 18.09435568 20.23611089 14.23778727
Al 18.16341621 1.89155253 12.07943439
Al 16.17229172 0.05991178 16.08724793
Al 16.19723423 1.98467997 18.16883818
Al 18.24192618 20.20775083 18.24230145
Al 18.27752851 1.96592772 16.12967036
Al 16.22928782 4.03974146 0.02588231
Al 16.27967891 6.15082316 2.10683839
Al 18.28426148 4.02503695 2.05217170
Al 18.23090107 5.97981154 20.19141123
Al 16.26598561 4.11869327 4.01554472
Al 16.26165256 6.09638239 5.98637920
Al 18.20205977 4.00235367 6.11162495
Al 18.27420611 5.95551627 4.03057033
Al 16.14217840 4.03152517 7.96528871
Al 16.12305060 6.21203279 10.15940003
Al 18.20890284 3.97097374 10.12493704
Al 18.25937481 6.03243738 8.12726140
Al 16.06492912 4.09895416 12.07125542
Al 16.19357050 6.09369221 14.13041218
Al 18.11257694 3.88676421 14.11305417
Al 18.04953791 6.06987468 12.09842951
Al 16.27579897 4.01373352 16.20014127
Al 16.20680672 5.96468884 18.23757365
Al 18.26557391 3.91889248 18.27923186
Al 18.36457391 6.02677002 16.15463879
Al 16.19810177 8.01161429 20.21577788
Al 16.32594494 9.99803827 1.98494323
Al 18.26351911 8.08369987 2.01356349
Al 18.15758365 10.12479921 20.21429231
Al 16.22616944 8.09250560 4.08357998
Al 16.16926887 10.16600049 6.19946910
Al 18.20018946 8.08664390 6.12409609
Al 18.22067980 10.09004563 4.06997107
Al 16.21554139 8.14992090 8.12958346
Al 16.21916095 10.30550058 10.04585138
Al 18.06716407 8.24026664 10.08083120
Al 18.29297730 10.13387444 7.99442554
Al 16.19035309 8.28483392 12.22167590
Al 16.10333862 10.20580116 14.19989297
Al 18.08669074 8.14567305 14.27877051
Al 18.28123271 10.24851331 12.17479250
Al 16.10542266 8.08657914 16.11047969
Al 16.16932947 10.14225448 18.14271176
Al 18.12832293 7.98203876 18.17458551
Al 18.31357760 10.06115261 16.29598369
Al 16.21238469 12.14816165 0.01890779
Al 16.23794368 14.10485226 2.13391201
Al 18.13409243 12.18747869 2.13607387
Al 18.26219966 14.19171257 0.05101193
Al 16.13278769 12.12363724 4.08739385
Al 16.16839086 14.18992436 6.02006558
Al 18.23926459 12.04925318 5.93468577
Al 18.28799908 14.21948561 4.11359758
Al 16.33297777 12.22240889 8.08916237
Al 16.45315195 14.23549615 10.15300706
Al 18.26589409 12.20707764 9.99682811
Al 18.36422718 14.16491698 7.84895805
Al 16.16146490 12.16792287 12.04644481
Al 16.16226308 14.17623491 14.08896696
Al 18.25888116 12.16946430 14.26159696
Al 18.28549962 14.29684123 12.21574346
Al 16.26352472 12.20839118 16.19899779
Al 16.29609971 14.33701373 18.17797820
Al 18.20229958 12.20488469 18.19829404
Al 18.37112882 14.19221849 16.15782278
Al 16.23992796 16.16539169 0.05516510
Al 16.16305228 18.23176725 2.02133613
Al 18.14011609 16.16608866 2.10310152
Al 18.19076782 18.14577014 0.10319798
Al 16.09516304 16.19802584 4.06502432
Al 16.21846924 18.27920812 6.10295336
Al 18.31372464 16.23096361 6.05885432
Al 18.18024764 18.22908682 3.96602360
Al 16.23212516 16.26213202 8.09479551
Al 16.27638345 18.28315924 10.14617829
Al 18.37058687 16.22663396 10.08764412
Al 18.18160543 18.39453370 8.14142190
Al 16.13998922 16.33423930 12.17370656
Al 16.19749006 18.22006484 14.12950863
Al 18.26057540 16.27757003 14.30593847
Al 18.29907980 18.24833403 12.09292480
Al 16.22490798 16.35768532 16.16845871
Al 16.21222613 18.33957523 18.21486772
Al 18.18494730 16.22099977 18.21489127
Al 18.23830431 18.26670630 16.26112563
