500
Final configuration Lattice="18.07500000 0 0  0 18.07500000 0  0 0 18.07500000" Properties=species:S:1:pos:R:3
Cu 2.88594649 3.81214355 7.24936720
Cu 14.66885406 12.66546086 11.57799960
Cu 0.89087691 2.00724689 1.34738165
Cu 14.17724992 14.21944979 0.22519879
Cu 17.44334807 8.60480734 13.68263395
Cu 5.67198665 17.20476642 3.25484727
Cu 4.65169112 14.38813484 1.99742837
Cu 1.45792390 4.61772625 9.08187290
Cu 6.33086433 1.50547704 8.23990839
Cu 5.75850865 2.51743792 6.00087041
Cu 4.34069234 10.53522115 7.18060133
Cu 2.28313035 0.30846195 0.01061099
Cu 4.25761594 4.25341588 9.29498102
Cu 0.93056372 16.47476471 10.79019474
Cu 15.95029692 0.19246875 12.81055014
Cu 16.95218669 16.15101502 6.18575577
Cu 17.50416696 14.70697524 15.79548218
Cu 1.17436331 6.47624253 12.89569487
Cu 0.13506683 12.90231847 4.32548637
Cu 17.11661367 15.98697903 12.22277668
Cu 17.73349758 9.91026528 11.78367735
Cu 15.97950156 5.87723333 16.87701295
Cu 12.21579570 17.63266584 2.35789432
Cu 6.04120734 4.87984292 17.10915372
Cu 4.76275576 1.22427602 17.61767659
Cu 17.44714180 12.31481480 16.14673256
Cu 3.54858103 0.19406924 2.22730853
Cu 16.42060541 3.09649910 5.01213777
Cu 0.82797593 3.85816199 15.98541781
Cu 15.32635223 5.13524197 8.80253965
Cu 14.30600947 18.05436445 7.06333117
Cu 0.82071375 7.09377970 8.47285033
Cu 3.64925369 10.26384899 14.76557478
Cu 7.60964082 11.72420807 13.63540101
Cu 1.02512185 2.13820524 5.70046041
Cu 0.17598333 9.50587083 8.26213798
Cu 12.35930864 16.88032732 15.87902482
Cu 2.64629507 13.20011746 13.12036169
Cu 15.61353680 4.76052586 13.08360741
Cu 13.75568406 3.84394095 12.27650548
Cu 14.17347387 4.83291853 0.87649702
Cu 15.48386016 1.42985310 3.67101288
Cu 17.93567003 1.88191896 3.48738264
Cu 11.11062749 6.25160126 16.48751463
Cu 14.39995581 9.93740662 5.78949468
Cu 1.57893135 9.50871701 6.32741527
Cu 15.77656769 8.84534426 2.13288547
Cu 1.09554858 9.14964950 15.15258984
Cu 17.59267385 3.47641513 7.40602687
Cu 17.52014139 5.96299127 5.31557415
Cu 3.28716883 2.59657314 12.39750965
Cu 2.57045073 8.86811597 8.23034463
Cu 12.43763464 16.57218465 6.79813680
Cu 14.26339609 6.67366043 12.69270981
Cu 14.78409496 2.24286392 13.48008075
Cu 6.40284142 9.97226189 10.81294200
Cu 17.12266054 2.52400088 13.73104111
Cu 4.32421668 9.34037561 11.57166978
Cu 17.85692847 0.88858239 7.51472347
Cu 1.43968211 2.39703821 8.22051994
Cu 3.52955317 14.68996766 5.36902131
Cu 17.26039210 12.98526412 11.79012596
Cu 16.73045614 8.11273968 4.25290362
Cu 4.87719296 13.10414749 3.71145650
Cu 6.80158913 10.73702638 1.89946096
Cu 13.92446186 9.75999794 1.38677219
Cu 16.52713849 9.74335860 6.68058612
Cu 1.46117724 11.32181899 2.85077632
Cu 13.30644000 12.25917615 15.80242248
Cu 11.29603573 17.60008676 8.40197465
Cu 2.25707500 11.25182295 7.94276623
Cu 0.24206180 11.30207377 6.81164493
Cu 15.92566477 10.45795234 13.18028959
Cu 15.01483461 12.95179775 8.76518188
Cu 16.24024435 13.40507039 18.01827662
Cu 2.22971562 11.32027178 0.25999465
Cu 11.54873979 12.10933543 11.81058863
Cu 1.00733607 11.74954853 12.19645066
Cu 0.26025269 7.46091117 2.80966964
Cu 1.58721815 14.40360208 11.53920523
Cu 9.63417279 4.60568741 6.25588799
Cu 2.83283545 17.79053801 4.92729940
Cu 5.63846261 17.75236224 15.22917216
Cu 7.47655708 16.77978355 4.78065089
Cu 3.08554633 0.02063555 8.07487822
Cu 3.19368425 16.95537422 9.92927773
Cu 9.85387118 12.99335880 4.55153933
Cu 6.92593934 13.66181282 14.81313481
Cu 16.24791456 17.79798452 8.40101117
Cu 0.83662255 13.09070212 8.57077794
Cu 17.64606812 13.93591606 6.60834652
Cu 1.10322068 15.09973575 5.42652705
Cu 2.66733901 13.31577677 3.92516671
Cu 15.63404150 15.43039552 8.39634055
Cu 3.85000742 13.47929738 8.04415564
Cu 2.52849255 2.23508119 10.00169208
Cu 12.86526852 2.56699120 14.91230746
Cu 3.36642207 16.77071310 16.69344095
Cu 15.84391712 15.85234470 17.83464398
Cu 0.60036915 2.49400296 11.99595390
Cu 4.13791951 4.68402117 2.46137574
Cu 4.41006159 3.28832998 16.85665235
Cu 10.62802097 9.10209940 3.20517314
Cu 2.83201323 16.18518334 3.18806775
Cu 2.65736629 6.23546268 4.20630186
Cu 7.04515592 1.02618561 3.83265661
Cu 1.46119337 0.17455837 2.68532276
Cu 5.38800780 7.86638683 17.80273330
Cu 17.71584329 4.77161439 2.68366254
Cu 11.80250308 9.60054585 7.94878668
Cu 4.34221051 16.70130985 0.59010908
Cu 3.71515155 3.58622369 4.79411389
Cu 5.02976285 15.28672961 7.49247437
Cu 4.25088683 1.98402584 7.96329055
Cu 2.94697084 3.06831878 14.86460839
Cu 11.48161899 12.50652402 6.37367401
Cu 5.88842677 7.66406989 11.39539132
Cu 2.48743836 2.05540086 16.88768285
Cu 2.19497349 15.97179283 0.71155458
Cu 10.25766927 7.35126001 12.27646743
Cu 9.81882852 5.68714325 0.35302608
Cu 15.34729190 12.06573972 16.67717315
Cu 8.80240542 4.96970138 2.28150451
Cu 7.20582403 0.70483855 5.92107771
Cu 17.82270154 4.69733937 11.80503760
Cu 1.76170695 6.03513537 2.04814344
Cu 4.23553273 6.55626440 5.80655877
Cu 5.93862506 0.48200645 1.41080930
Cu 6.40688455 5.43601403 10.09631797
Cu 5.15701952 4.68106969 6.88202860
Cu 7.50186184 2.98670797 14.05482123
Cu 9.30897726 3.81646872 9.97314623
Cu 10.15188003 1.17095113 7.31773059
Cu 1.34438627 6.51847748 10.73119299
Cu 12.70166059 8.40190488 12.45418078
Cu 6.98223348 5.64054931 14.59014353
Cu 5.14269507 2.48674546 10.08090670
Cu 12.36030405 1.62604951 3.28405762
Cu 8.99033613 17.70244109 13.42854007
Cu 8.58596918 14.75708297 7.59121817
Cu 7.06167337 3.82517014 8.12606996
Cu 9.37203220 7.09211487 2.48372190
Cu 7.90882090 9.32126251 12.34116664
Cu 4.93103306 4.77249382 14.73335641
Cu 4.68179417 6.99426209 3.22131657
Cu 6.73816391 11.24920027 6.50841872
Cu 3.79143159 7.23712280 10.25200020
Cu 14.98079084 13.52407162 4.16105917
Cu 6.40641179 8.68115236 4.40711829
Cu 7.47523178 11.94299716 10.96100433
Cu 5.59325011 8.60980084 6.77117651
Cu 10.55858887 14.82307478 12.41206559
Cu 6.53046879 13.80001965 7.05348230
Cu 7.97724649 5.75114275 8.27976225
Cu 7.94340798 3.63941854 16.62840900
Cu 3.21153457 7.49492518 12.50500478
Cu 17.05511349 11.67636337 8.80823364
Cu 2.46099301 3.94928204 0.26033121
Cu 16.10603546 3.69561757 0.09288304
Cu 5.35211314 13.17249106 16.58557736
Cu 0.23046544 17.72495909 0.11036730
Cu 0.22809128 12.40432718 0.30682683
Cu 7.44081155 11.71266017 16.11723266
Cu 1.08268583 15.66925309 13.55057829
Cu 3.27465285 7.67276091 1.30338883
Cu 1.51015631 8.79076447 4.09590375
Cu 2.27980712 15.18427147 8.92271108
Cu 4.00572590 11.28498010 3.07103453
Cu 1.13975755 17.52896842 6.70686684
Cu 2.66264960 12.38952062 10.07980568
Cu 3.48448032 1.60383833 5.84581179
Cu 11.54060423 17.21571218 12.18719180
Cu 5.43139976 8.14970201 14.14459274
Cu 1.43479220 4.14837942 4.98628409
Cu 6.44465280 17.35616972 12.10635409
Cu 5.97073210 15.62315204 13.74443751
Cu 3.14872075 5.26154793 13.41845086
Cu 2.97677084 1.91005515 3.34019979
Cu 8.26851892 3.48821878 4.02232271
Cu 1.51621943 12.90683442 14.91475835
Cu 8.57252396 0.95619402 15.45730921
Cu 13.18523802 14.62472474 2.20614896
Cu 5.17283922 0.11259951 6.70348679
Cu 6.90856951 1.94548239 18.00850381
Cu 0.85876235 15.30499083 2.77307170
Cu 3.04899740 16.22683599 6.84243164
Cu 4.10265164 9.88722129 0.86016422
Cu 5.32217763 15.55114871 15.94914206
Cu 5.13063201 15.74400530 11.29824936
Cu 1.45124726 9.43947515 13.01060794
Cu 5.53948453 9.79616884 16.24751953
Cu 4.54971268 0.19940417 11.10393766
Cu 16.02370951 10.67362901 10.57992341
Cu 8.96930038 15.16398849 14.15858684
Cu 17.99310207 15.21673736 0.22269214
Cu 8.47130614 5.90057731 10.82167272
Cu 4.96078994 6.78179193 15.80781954
Cu 17.30677601 7.61910606 15.86769184
Cu 5.17292449 2.37021497 14.05308708
Cu 2.16267542 0.43726566 11.54267475
Cu 3.34914866 15.81697957 14.23001974
Cu 6.90274327 13.24991641 2.06322523
Cu 13.91097064 2.34465594 5.20209845
Cu 9.30538527 0.78067974 4.68535252
Cu 6.98539574 0.40505277 10.29512386
Cu 8.04011693 14.77946554 5.36522575
Cu 11.06797164 13.34926695 14.27014125
Cu 12.21923236 3.91811597 3.82602460
Cu 17.65804200 0.48524842 10.90658061
Cu 5.94392703 14.25534183 9.52121774
Cu 7.94583387 12.94703384 8.92006180
Cu 8.62712060 7.99923650 4.85262896
Cu 10.10859996 1.13863669 9.63791839
Cu 9.25250548 3.96901863 12.10613768
Cu 10.26544628 4.01156873 15.60449562
Cu 3.87682288 0.98575912 15.62670155
Cu 7.51799459 2.47918799 2.01550487
Cu 0.16177553 2.83008839 9.77186239
Cu 11.21503399 2.07467520 11.78572653
Cu 7.00464360 7.63461759 15.87779742
Cu 5.34815563 3.48201601 0.65833550
Cu 5.78594114 5.88653208 1.63217343
Cu 12.75369402 3.88229524 6.52796365
Cu 13.87467042 2.95832733 17.10714681
Cu 5.30966730 2.71179243 2.91711334
Cu 5.78453521 12.03203911 8.79131182
Cu 6.88539980 15.78103087 1.75945057
Cu 9.70230995 10.28494556 7.83560893
Cu 6.73715291 6.94539315 5.71129584
Cu 10.72590629 10.02067074 11.73085049
Cu 10.31779202 8.57855005 6.46632706
Cu 11.89523800 10.17088042 5.55045892
Cu 7.16997927 3.19670454 10.86831329
Cu 3.18235280 7.83628620 14.74779976
Cu 8.19798821 2.15409473 9.02971663
Cu 7.54637219 9.56574899 14.53151364
Cu 12.78535074 5.02287309 15.09511625
Cu 4.47096906 5.10693641 11.54096614
Cu 17.97781406 17.79686730 13.40695263
Cu 12.72291174 7.88552872 17.25742113
Cu 12.88769732 7.72285906 14.89916052
Cu 15.85665325 11.76204665 5.69378867
Cu 11.53252247 5.88377148 5.79260930
Cu 10.91577897 5.41811322 2.44460497
Cu 15.01230329 4.14184145 14.98175548
Cu 12.98426271 14.43903345 8.72311135
Cu 7.33310118 4.68621163 6.11514606
Cu 5.41385247 6.96152885 8.37557227
Cu 11.58630787 1.27530571 15.94261716
Cu 3.89650629 9.23517343 5.41173150
Cu 9.13605796 8.76255696 10.50920014
Cu 4.92958826 11.59897519 11.02422389
Cu 5.34898673 6.26159285 13.13851205
Cu 8.69843716 13.43464035 12.48743126
Cu 8.97617658 12.78836565 15.12897535
Cu 7.86844696 8.80811199 7.20608619
Cu 13.20427795 12.23524305 0.13540935
Cu 1.55484002 6.04679793 6.36551041
Cu 10.50456680 12.20837051 1.31604938
Cu 7.32254301 6.96661250 2.98466651
Cu 3.50585713 13.97742220 15.50777231
Cu 7.43852038 7.34676816 0.71389085
Cu 7.60160038 4.67079481 0.64703464
Cu 5.73516685 10.21066904 13.14055614
Cu 3.73787762 8.98490240 2.94576478
Cu 10.80783901 7.81456613 0.78098098
Cu 8.79192121 10.59725042 5.44610021
Cu 2.41341570 6.80752464 17.16252194
Cu 9.98549179 7.68517563 8.50680305
Cu 0.88482923 0.07068398 9.19908084
Cu 12.12022392 6.97537698 8.35070353
Cu 11.28060945 15.28899220 10.21174497
Cu 10.24719237 9.00412119 13.77700386
Cu 16.21499451 15.86434168 14.35888042
Cu 3.71712976 11.57813243 16.65194642
Cu 6.60552141 13.88306171 11.55829274
Cu 1.99124553 9.34480586 1.57410985
Cu 7.11105143 0.66695084 13.63440297
Cu 3.20195830 6.03740463 8.09950662
Cu 6.29920764 2.11484109 15.73271657
Cu 5.42192272 9.14845340 9.10119353
Cu 6.01505245 11.30311182 0.00134550
Cu 10.60399639 12.75161846 8.53452442
Cu 8.02550706 12.43620793 0.51185163
Cu 13.12542299 11.80923228 8.02213453
Cu 5.79402759 8.58375374 1.80062642
Cu 9.83273957 16.85556157 15.51755958
Cu 6.77470690 17.58282233 17.23843300
Cu 4.11705380 12.31346418 0.95518341
Cu 7.05505287 12.69278782 4.38790190
Cu 14.87325526 10.56404304 8.38403301
Cu 13.21268505 12.41270773 13.41907392
Cu 4.88676642 16.49972651 5.09062367
Cu 6.63823194 14.54138662 17.97366901
Cu 5.40422505 17.25368397 9.01018259
Cu 17.22116731 13.83389028 2.01724142
Cu 8.29181378 5.89009685 16.73538847
Cu 8.20041957 14.87449927 16.49695047
Cu 1.46878564 11.12627477 16.20070191
Cu 1.90207616 13.40492393 1.42916986
Cu 12.59269878 13.64854976 4.21295728
Cu 8.06024426 17.45002574 2.61539429
Cu 14.49946131 7.34913020 0.46165279
Cu 17.43233361 5.44980923 14.95167347
Cu 9.36958214 17.10596179 6.92222998
Cu 10.05442981 2.35961857 2.88724289
Cu 10.91513928 11.36450546 3.63291910
Cu 9.16889816 12.52103504 6.76159062
Cu 10.56075530 2.74007346 5.12918825
Cu 14.58290399 15.89288762 6.17027906
Cu 10.16112185 5.20686212 8.46883178
Cu 12.19083552 2.66920812 9.50319564
Cu 11.40608678 4.53445009 11.38146163
Cu 8.24458957 1.42740103 11.92583677
Cu 9.74601202 5.70230490 13.71066886
Cu 6.83712955 4.71156955 12.46929579
Cu 10.55050661 14.98180661 17.01379169
Cu 13.64565011 0.81857492 17.34210030
Cu 14.90464071 10.98610520 3.38774862
Cu 11.69227136 1.31809725 0.75028050
Cu 9.05667432 0.80220147 0.60390707
Cu 14.75359675 8.05473967 16.08482572
Cu 13.83087559 15.61547528 4.16625629
Cu 14.65657611 17.73566590 2.22102490
Cu 0.62154064 10.87446529 9.81795983
Cu 8.97413415 6.69409099 6.67178866
Cu 13.12132577 5.77859518 2.81002715
Cu 5.55489850 5.09889524 4.28130099
Cu 7.32056265 7.78733037 9.43323497
Cu 10.44643896 6.66332253 10.25732223
Cu 0.07753290 15.98275945 8.25763193
Cu 13.80996245 9.55525483 10.16765878
Cu 9.88092596 2.16585224 14.28265014
Cu 7.82997519 7.37974882 13.33295013
Cu 1.60333158 1.52822955 13.75782869
Cu 16.41277378 7.94517261 8.43241378
Cu 1.23876320 6.87020562 15.21186591
Cu 11.60127724 3.50514371 17.50447393
Cu 0.34871167 9.82680193 17.47749946
Cu 10.84869191 8.81122709 16.10890318
Cu 4.13104025 14.59500853 17.98075161
Cu 6.28735660 14.79992183 3.89574824
Cu 8.77268197 5.86485919 4.27868853
Cu 11.68929137 10.91692215 17.06200848
Cu 10.91802596 15.05530972 8.00496353
Cu 12.37278839 8.11589430 6.24861306
Cu 11.44251612 18.05247668 5.22265555
Cu 14.60770386 3.57085431 10.03501967
Cu 14.29279631 8.62196075 7.71124501
Cu 11.41552216 8.70100579 9.96106747
Cu 7.68571634 10.47088784 8.64981560
Cu 13.24556862 7.85702301 2.03976644
Cu 14.15196754 7.29260558 9.49321894
Cu 15.21114013 15.29067291 1.99201087
Cu 9.09456242 10.24529808 16.90447626
Cu 8.86818215 16.26122325 18.07365450
Cu 3.21324774 11.09775513 12.58952259
Cu 10.38862886 11.08372945 15.27361318
Cu 11.99619155 10.36105802 13.86180352
Cu 17.41694976 7.90940035 10.44764259
Cu 13.40423262 10.73526521 11.92096141
Cu 8.62848329 14.93196869 3.17591382
Cu 16.60427140 8.77386243 17.71160635
Cu 9.09253863 8.11177231 17.40147419
Cu 12.39823540 1.50798224 6.82232581
Cu 13.16271120 5.90654276 10.90395803
Cu 17.41651972 4.80097070 9.49804979
Cu 15.69784396 10.85056158 0.59954133
Cu 13.52425478 11.97107180 5.68483335
Cu 13.54511666 14.35470882 14.37144154
Cu 16.20448808 3.10944145 11.56854032
Cu 14.94018397 1.45490651 10.82533401
Cu 17.91441875 13.66853562 13.88382256
Cu 10.05877598 16.05737189 1.75813813
Cu 16.44227593 10.08402352 16.02786744
Cu 10.05680431 11.25899100 13.26510087
Cu 11.65114312 10.91122272 9.65394208
Cu 15.01950713 14.54260424 12.60953053
Cu 13.48346979 0.38771811 14.85089463
Cu 15.76516109 17.47364505 10.59048324
Cu 8.72503370 11.71444456 2.89322560
Cu 9.09120424 9.61322261 1.08806936
Cu 9.42973630 14.22574143 0.67050567
Cu 9.98895479 3.17468536 0.98487976
Cu 15.11253829 14.38155517 16.09366823
Cu 9.12137910 7.32316499 15.15033516
Cu 10.70736348 3.21003125 7.71066279
Cu 8.14663010 9.50364547 3.35432326
Cu 5.76475464 10.64823255 4.52915236
Cu 2.98265738 16.32779761 12.12819303
Cu 12.17068058 0.42397365 10.35180422
Cu 9.68848641 16.89220034 10.73801735
Cu 7.56360406 16.65140123 15.17172249
Cu 14.70520104 1.64811118 1.24534520
Cu 12.73600202 14.46716994 16.49359458
Cu 15.25164122 8.51786447 11.35078608
Cu 1.96613656 17.59276612 15.07851371
Cu 14.55098411 16.63283986 16.04884113
Cu 10.04094372 0.16033134 2.62965635
Cu 16.71712556 3.30617822 15.92423269
Cu 17.07911294 6.08951933 7.59214097
Cu 10.81974860 14.94921730 5.78803303
Cu 3.49258167 8.77831737 16.83370726
Cu 14.93922437 2.92650695 7.76881629
Cu 15.64104323 6.22271468 2.74651989
Cu 15.25769547 1.66710236 15.87145505
Cu 1.67994018 3.90506167 2.48776861
Cu 17.44211456 16.97863381 1.97977566
Cu 17.75925665 10.35291316 4.87000724
Cu 17.81180968 11.35579963 13.98444936
Cu 11.85516248 9.94735632 1.18239998
Cu 16.30670984 1.73285107 8.92952108
Cu 13.65949382 16.74986921 11.45132571
Cu 12.06055926 6.36075663 13.31522827
Cu 17.54740478 14.67760121 10.14198927
Cu 17.84137228 16.79285267 15.85756233
Cu 0.58099193 1.35681954 15.95147085
Cu 13.16871326 16.84802204 0.23806414
Cu 16.17572188 0.58385148 6.05909140
Cu 13.80165950 16.83936262 8.90792799
Cu 2.37649270 11.22532445 5.15205410
Cu 3.58398830 2.40415852 1.16358811
Cu 0.41113718 5.88864405 17.16711367
Cu 10.73062312 13.82613371 2.80117781
Cu 9.83817267 16.79527973 4.28745434
Cu 14.09951627 3.28460568 3.02117400
Cu 8.24577234 2.57084063 6.48573496
Cu 3.95320226 5.57850672 18.00580076
Cu 12.98637375 1.07677256 12.71060413
Cu 9.30524031 11.21694004 10.04638951
Cu 16.40641976 3.00787215 2.24551048
Cu 12.45619267 3.38315646 1.68647486
Cu 15.64430983 4.59911438 6.51534621
Cu 15.59076531 17.90492771 17.57077567
Cu 16.75847161 6.82905169 0.76638042
Cu 1.07151158 3.99769263 13.63003924
Cu 10.30983217 12.63163081 17.32301037
Cu 2.12209096 4.08641641 11.18297643
Cu 0.31047209 3.73520098 0.21007335
Cu 2.88249690 4.92308309 16.03844317
Cu 15.24628753 8.52488394 13.95309183
Cu 11.87055178 13.87529223 0.77453080
Cu 16.88430582 1.64017950 17.63312546
Cu 15.12402584 6.45434633 14.81785681
Cu 11.24732013 6.92630160 3.85731515
Cu 12.79000545 12.66051925 10.11863181
Cu 17.64432484 9.60956689 1.57062592
Cu 12.26367297 6.03530234 0.61454421
Cu 9.03606963 14.55166696 10.14791769
Cu 15.58779111 7.23916513 6.00428953
Cu 14.36544183 4.96889085 4.63247850
Cu 1.56670794 8.71178612 10.58225637
Cu 8.07930202 17.98937785 8.54184200
Cu 0.16711327 17.71022636 4.40294522
Cu 11.56473680 3.60830424 13.53009589
Cu 15.47381347 5.62335091 11.02213681
Cu 5.32220112 12.01917229 14.51001763
Cu 14.10047845 16.44879019 13.56584037
Cu 14.60819907 14.88944794 10.40245083
Cu 3.50916509 10.31648717 9.75725941
Cu 7.81989938 15.47105755 12.05482344
Cu 13.83716350 10.19047848 17.08977050
Cu 13.06298641 4.95686602 8.74065164
Cu 7.18230620 9.32133547 17.81482918
Cu 4.36382213 12.47356174 5.97447103
Cu 13.92311212 5.65366497 16.80062276
Cu 1.85580566 13.27194339 17.21494994
Cu 1.53674420 15.30347763 16.18447540
Cu 14.46581753 8.12599987 3.83586351
Cu 15.42018714 13.88591151 6.19390432
Cu 17.99746710 8.00859236 6.22154521
Cu 1.90743755 13.03488945 6.56799872
Cu 12.82373509 14.20127577 12.24670363
Cu 16.54172958 6.64269071 12.91872880
Cu 13.73440436 6.11948895 6.78842212
Cu 13.79652367 1.09259014 8.81752434
Cu 3.72516466 14.13672288 10.47153678
Cu 5.86173327 1.85263209 12.12865230
Cu 0.83693192 7.93810642 0.38151087
Cu 4.87781273 13.73841100 12.99977887
Cu 9.85138471 2.01577416 16.99075306
Cu 13.81686358 17.97344905 4.58701441
Cu 12.78156180 9.91562117 3.41158342
Cu 14.42124049 10.59702770 14.68464562
Cu 15.14063252 12.99997892 2.04397629
Cu 16.99606300 0.95585224 1.88285183
Cu 16.85996949 11.45832201 2.78079817
Cu 4.97169987 0.79789895 4.40786763
Cu 12.86174749 12.18020671 2.49236046
Cu 15.82226439 17.08607276 4.04679147
Cu 16.77962619 14.83594124 4.11627918
Cu 11.62801390 15.84718365 3.46721819
Cu 11.60302001 15.46913557 14.17448118
Cu 13.23818744 14.07149957 6.60202426
Cu 6.88212333 16.44885622 7.17417312
Cu 7.29487340 16.02245652 9.49553500
Cu 15.50024567 12.70586730 14.34134079
Cu 11.29369217 0.07865536 14.12252668
Cu 10.60983270 17.76849661 17.62555794
Cu 3.43752006 0.08657196 13.47839686
