500
Final configuration Lattice="17.60000000 0 0  0 17.60000000 0  0 0 17.60000000" Properties=species:S:1:pos:R:3
Ni 17.59715576 0.08249200 0.05499300
Ni 0.02703202 1.84450739 1.77007675
Ni 1.72680729 0.05307277 1.74624933
Ni 1.73325013 1.81862255 17.59502064
Ni 0.05200558 0.03388316 3.57014032
Ni 17.58342582 1.79677042 5.29571140
Ni 1.84703271 17.55882386 5.24768379
Ni 1.76829353 1.70454930 3.49103368
Ni 0.01754897 17.59453985 7.09784924
Ni 17.53266209 1.80926301 8.82070428
Ni 1.74690907 0.08033281 8.73513688
Ni 1.72431815 1.78082886 7.04258329
Ni 0.07534256 0.06071310 10.54239235
Ni 0.01252004 1.77090775 12.30728735
Ni 1.79401055 17.57309215 12.22901741
Ni 1.78914479 1.71338397 10.57176382
Ni 17.57291057 0.07161158 14.02359062
Ni 17.53874751 1.75859079 15.77029010
Ni 1.77052192 17.52578262 15.80025496
Ni 1.81859307 1.73355184 14.08270918
Ni 0.02763766 3.48124037 17.47662589
Ni 17.54095472 5.23273820 1.81408321
Ni 1.80768178 3.54092387 1.78478438
Ni 1.75527391 5.24787718 0.02423849
Ni 17.57669916 3.55346111 3.58164841
Ni 17.56226686 5.38357005 5.30333549
Ni 1.74151451 3.52457993 5.29957879
Ni 1.69378041 5.34179601 3.51782903
Ni 17.53904017 3.51578807 7.04215710
Ni 0.05547455 5.24793653 8.79456315
Ni 1.72961640 3.53019225 8.77657701
Ni 1.70284807 5.30433136 6.97320510
Ni 0.03945863 3.52352676 10.60542542
Ni 17.56109362 5.28660065 12.24943897
Ni 1.81907097 3.49279682 12.27708713
Ni 1.82312841 5.24666027 10.57049248
Ni 0.05874042 3.61794863 14.00325904
Ni 17.58685198 5.36281810 15.83548457
Ni 1.77854492 3.62325796 15.79333789
Ni 1.79952282 5.34311626 14.05978538
Ni 0.01348336 7.06378609 0.03813112
Ni 17.56932479 8.79134072 1.73412523
Ni 1.67698340 6.98859526 1.80373648
Ni 1.67997009 8.83288648 0.01253454
Ni 17.53338333 7.06257600 3.49883563
Ni 17.56806362 8.80201828 5.27175153
Ni 1.76609455 7.14898901 5.32727572
Ni 1.68666510 8.74633416 3.43431528
Ni 17.58813799 7.02907712 7.06584375
Ni 17.55811874 8.75100109 8.79787889
Ni 1.75315611 7.07500489 8.75691504
Ni 1.85417593 8.79142892 7.09319894
Ni 0.07034382 7.00216846 10.55211280
Ni 0.04077978 8.86165350 12.32653235
Ni 1.75542885 7.03559514 12.38313716
Ni 1.71505926 8.84629938 10.56895746
Ni 0.03018414 7.06625878 14.17365857
Ni 0.05613754 8.84645167 15.84831897
Ni 1.75332869 7.10055191 15.97553855
Ni 1.81287677 8.78807508 14.15690130
Ni 17.59605586 10.54151242 0.09061490
Ni 17.53845203 12.32827667 1.79116884
Ni 1.74354088 10.60928586 1.82616979
Ni 1.77292575 12.35275480 0.12563101
Ni 17.55283814 10.61551972 3.47682423
Ni 17.57243369 12.33857617 5.23923410
Ni 1.69746393 10.51428641 5.25285686
Ni 1.81741941 12.32133663 3.64927806
Ni 0.07261509 10.53831491 7.07703104
Ni 17.51443064 12.24879571 8.72299130
Ni 1.85267345 10.51263527 8.83280433
Ni 1.75760560 12.27947800 7.05426024
Ni 0.02719458 10.59804845 10.45278449
Ni 0.08607656 12.26727410 12.32738962
Ni 1.78401253 10.56296859 12.37904153
Ni 1.72604874 12.28881279 10.56815353
Ni 0.07626106 10.56153390 14.14529450
Ni 0.02789213 12.31717161 15.92887218
Ni 1.82116610 10.58759583 15.85469752
Ni 1.74889279 12.30782093 14.15080022
Ni 0.03730525 14.10073359 0.02618214
Ni 17.58649617 15.86586071 1.78383126
Ni 1.72633337 14.12720805 1.82815659
Ni 1.72716552 15.85931781 17.58236643
Ni 0.06294049 14.14957631 3.56161510
Ni 0.02778339 15.85378162 5.37351411
Ni 1.77160054 14.14225892 5.30903093
Ni 1.71167053 15.87492523 3.49617662
Ni 0.00284424 14.07931667 7.04057372
Ni 17.57932969 15.88382287 8.73844732
Ni 1.68062600 14.04461157 8.81105707
Ni 1.76577859 15.79167973 7.09931292
Ni 0.02842187 14.04864024 10.65175207
Ni 0.03451035 15.84434357 12.37532424
Ni 1.75239388 14.02060346 12.37874195
Ni 1.72496081 15.80249696 10.49202214
Ni 17.52111085 14.07307073 14.08442845
Ni 17.50913255 15.84038239 15.92658929
Ni 1.74325973 14.10019980 15.78994248
Ni 1.74865670 15.85092889 14.06948357
Ni 3.46794833 17.53935811 17.59678374
Ni 3.50769853 1.69218155 1.77079664
Ni 5.28616036 17.54881703 1.77000445
Ni 5.35666091 1.71482483 0.02597307
Ni 3.52177722 17.53761243 3.52945578
Ni 3.44656063 1.74334486 5.27918536
Ni 5.27207990 17.56941050 5.28793738
Ni 5.28046791 1.76410685 3.54116957
Ni 3.50980078 17.53983586 7.06083660
Ni 3.51246445 1.80977638 8.84835136
Ni 5.24028017 0.02124053 8.74930967
Ni 5.15016506 1.78657160 7.04961182
Ni 3.50675815 17.56108551 10.48040819
Ni 3.55667677 1.72429238 12.33303545
Ni 5.26257234 17.49001728 12.31989090
Ni 5.24930408 1.66720143 10.52735303
Ni 3.49328290 17.46942441 14.08851782
Ni 3.54638843 1.74510101 15.81629895
Ni 5.25536263 17.57073705 15.86660042
Ni 5.28480784 1.70013925 14.13694417
Ni 3.53557938 3.56643520 17.57516091
Ni 3.55272036 5.34940671 1.81723682
Ni 5.25164691 3.44820113 1.76341532
Ni 5.35840564 5.15471450 0.02802533
Ni 3.48563143 3.51865182 3.51277541
Ni 3.56871191 5.29646591 5.20380512
Ni 5.22033628 3.43227716 5.27962051
Ni 5.23450930 5.23691463 3.50062766
Ni 3.43635920 3.58583280 7.05194245
Ni 3.50451621 5.31908982 8.77764843
Ni 5.23366019 3.52538049 8.77603239
Ni 5.21749729 5.25262031 7.00718084
Ni 3.47137038 3.53085555 10.52445121
Ni 3.52721903 5.19372210 12.31279058
Ni 5.25059955 3.41114531 12.33717489
Ni 5.27805999 5.19158798 10.53968012
Ni 3.50307571 3.53888025 14.09389738
Ni 3.50513140 5.27576499 15.86209194
Ni 5.31439758 3.43217311 15.83918758
Ni 5.32296106 5.27654690 14.05730084
Ni 3.53689747 7.03256508 0.03284653
Ni 3.40351341 8.74689741 1.79713034
Ni 5.26216131 7.10008655 1.76046875
Ni 5.35249577 8.79805129 0.01321231
Ni 3.50457955 7.10705458 3.55253703
Ni 3.55776233 8.83694097 5.23182860
Ni 5.25498030 7.05837599 5.27812224
Ni 5.28914219 8.79293629 3.54270911
Ni 3.48974686 7.11663907 6.93880640
Ni 3.51901491 8.77360365 8.82596390
Ni 5.21568818 6.93192280 8.77197611
Ni 5.29494717 8.85300493 7.00172905
Ni 3.50040835 7.05391769 10.59937578
Ni 3.43139297 8.82995273 12.36088122
Ni 5.23049913 7.00396908 12.32048449
Ni 5.30746799 8.71213424 10.58605913
Ni 3.48283818 7.01535649 14.10585310
Ni 3.56145169 8.83655512 15.90951522
Ni 5.27289344 6.98286183 15.81740802
Ni 5.21608468 8.72947819 14.13588741
Ni 3.51946348 10.51340461 0.07638804
Ni 3.57576884 12.31330481 1.84270142
Ni 5.28063664 10.51605778 1.85526911
Ni 5.33926100 12.25613738 0.07368705
Ni 3.46714274 10.62764719 3.57417019
Ni 3.50154803 12.31133229 5.33609943
Ni 5.28568206 10.54666388 5.20691134
Ni 5.30577604 12.26500913 3.54054891
Ni 3.52010207 10.54192219 7.00030205
Ni 3.44670676 12.38757601 8.79428192
Ni 5.27580903 10.57031587 8.84323497
Ni 5.22271882 12.32946815 7.08642602
Ni 3.53507339 10.57398041 10.70219775
Ni 3.54540027 12.27558945 12.29342952
Ni 5.30440207 10.55722075 12.27747284
Ni 5.20884902 12.34706875 10.49375915
Ni 3.55431337 10.57287995 14.06030870
Ni 3.49401004 12.30564182 15.92443045
Ni 5.29063298 10.50875173 15.88954690
Ni 5.30039915 12.28981184 14.06274333
Ni 3.51339715 14.10465379 0.05416945
Ni 3.50455926 15.85930912 1.73347927
Ni 5.31850031 14.05848370 1.76066657
Ni 5.22782543 15.84176975 0.06728628
Ni 3.50413508 14.06936329 3.51954750
Ni 3.53780516 15.82836285 5.27633990
Ni 5.24868804 13.99298471 5.26111452
Ni 5.28139383 15.81980901 3.50777518
Ni 3.44883113 14.11883610 7.14347710
Ni 3.50260719 15.87357539 8.73371839
Ni 5.27374980 14.09895175 8.80443880
Ni 5.25373541 15.79994590 6.96826469
Ni 3.44398090 14.11032186 10.61583201
Ni 3.51575332 15.75343079 12.44043841
Ni 5.29433985 14.01113420 12.35736441
Ni 5.27713733 15.85256531 10.58305540
Ni 3.48308398 14.03342972 14.15543854
Ni 3.54386205 15.73817716 15.90422962
Ni 5.32132352 14.10550754 15.91665259
Ni 5.27739114 15.75190200 14.04254152
Ni 7.05053269 17.54182967 17.56947385
Ni 7.12595069 1.66754373 1.75925310
Ni 8.86152386 0.04307412 1.68754255
Ni 8.85563252 1.74303304 17.58261066
Ni 6.97700656 0.05755407 3.58414863
Ni 7.04618969 1.82173450 5.28269229
Ni 8.81951435 0.08305788 5.28429267
Ni 8.83734440 1.78251602 3.58898358
Ni 7.02192355 17.54877378 7.05211553
Ni 7.02992176 1.70854156 8.65339689
Ni 8.78951036 0.01256845 8.78052151
Ni 8.86138165 1.75535705 6.98703243
Ni 7.04608921 0.00546015 10.62120515
Ni 7.00253888 1.73814743 12.32601420
Ni 8.77485243 0.05672881 12.30597562
Ni 8.77114319 1.85115824 10.50065613
Ni 7.04494649 0.03352424 14.07247731
Ni 7.06952927 1.68825069 15.81198295
Ni 8.81480579 17.49191044 15.73759330
Ni 8.82318499 1.71806815 14.10219572
Ni 7.07345597 3.40806513 0.04291526
Ni 7.07543359 5.27858658 1.77762293
Ni 8.84373113 3.53614000 1.75355018
Ni 8.80632104 5.29469020 0.02895192
Ni 6.98984302 3.47751585 3.51678467
Ni 6.91262811 5.19885154 5.22509908
Ni 8.76957112 3.56567932 5.24312581
Ni 8.83022076 5.24870544 3.52804663
Ni 7.02018124 3.55320951 7.01231195
Ni 7.00544375 5.19455697 8.75209573
Ni 8.78554509 3.49532108 8.74571814
Ni 8.76657634 5.28574230 7.04162467
Ni 6.99176117 3.48928278 10.55714300
Ni 6.99836888 5.24651910 12.21946647
Ni 8.79882107 3.56912097 12.35935746
Ni 8.78179664 5.18490375 10.52504974
Ni 7.01068715 3.48492143 14.01856394
Ni 7.09042591 5.26765431 15.88709392
Ni 8.79909934 3.45220958 15.87598404
Ni 8.80369899 5.30418164 14.13324849
Ni 7.00494512 7.04501940 17.58205664
Ni 7.09654437 8.87293197 1.80917283
Ni 8.82151311 7.08613811 1.73953332
Ni 8.81215001 8.89992330 17.58797454
Ni 7.03160624 7.06176615 3.39785981
Ni 7.04192985 8.76918819 5.31192317
Ni 8.75992908 6.98631181 5.21449190
Ni 8.83287530 8.84277471 3.49301257
Ni 6.95403328 7.06570382 7.04324971
Ni 6.94451643 8.72456213 8.86327826
Ni 8.70859341 6.90165701 8.78612434
Ni 8.77308895 8.81767613 7.12040107
Ni 7.05311106 6.94139549 10.50219409
Ni 7.05700118 8.72273043 12.37570838
Ni 8.81988820 7.01216454 12.33082074
Ni 8.75032835 8.79897304 10.47215964
Ni 7.11268158 7.01802320 14.09482096
Ni 7.07307233 8.71576376 15.79627718
Ni 8.83150214 6.99258394 15.92939510
Ni 8.89832729 8.71493180 14.13505550
Ni 7.06000181 10.54879503 0.02957499
Ni 7.10903339 12.31756459 1.82273137
Ni 8.90490433 10.62693978 1.75607083
Ni 8.83313888 12.38542766 0.02861950
Ni 7.07732285 10.53876968 3.49858950
Ni 7.04143795 12.32492008 5.19508152
Ni 8.81909299 10.54165905 5.29095670
Ni 8.90688763 12.40194927 3.57484164
Ni 6.99326886 10.55260467 7.00100767
Ni 7.05866887 12.34540828 8.70457552
Ni 8.73832027 10.51673594 8.73550909
Ni 8.87247593 12.21588145 7.07114089
Ni 6.98300074 10.60907522 10.47232315
Ni 6.95239104 12.29916735 12.23561173
Ni 8.81486118 10.53962319 12.30670402
Ni 8.73195960 12.28804791 10.55561764
Ni 6.98394527 10.49401721 14.03668320
Ni 7.09560719 12.28256206 15.74659464
Ni 8.78127405 10.55360557 15.83165268
Ni 8.73654121 12.34662116 13.98740494
Ni 6.99937448 14.10358460 0.09116259
Ni 7.13355147 15.88478074 1.74978359
Ni 8.77642003 14.12802960 1.77515803
Ni 8.85455592 15.80443167 17.59789639
Ni 6.94547372 14.07379228 3.50043592
Ni 7.05476416 15.80586315 5.22410760
Ni 8.74715434 14.08054002 5.27973888
Ni 8.78952667 15.89422924 3.53526180
Ni 7.01506354 14.01572933 6.95716103
Ni 6.98114247 15.83165933 8.78309735
Ni 8.77219891 14.12804715 8.73691658
Ni 8.88404419 15.85061618 7.08668879
Ni 6.99238782 14.05788734 10.43199975
Ni 7.04041800 15.88734766 12.37437435
Ni 8.67068426 14.06301566 12.23977958
Ni 8.74535058 15.84737036 10.59916842
Ni 6.99487616 14.01161787 14.11069533
Ni 7.04727477 15.83039220 15.84853177
Ni 8.81071385 14.13047638 15.83732447
Ni 8.82549576 15.76718208 14.09048663
Ni 10.60759282 0.01887072 17.58643420
Ni 10.53938181 1.70792891 1.85397446
Ni 12.30240157 17.52870091 1.70236947
Ni 12.27061346 1.70504338 0.04192143
Ni 10.55911449 17.58203321 3.57380240
Ni 10.63401202 1.74618040 5.27799270
Ni 12.35815512 17.54758968 5.27541764
Ni 12.38224601 1.71586141 3.49903239
Ni 10.58619443 17.56347955 7.05930193
Ni 10.48569018 1.75280440 8.82094538
Ni 12.35728254 0.02847021 8.77368496
Ni 12.32713719 1.75932664 7.05967444
Ni 10.57070897 17.56830189 10.49235036
Ni 10.57413476 1.77014899 12.25922053
Ni 12.35101880 17.46112245 12.31323923
Ni 12.40770638 1.71729217 10.48220838
Ni 10.58238058 17.56531719 14.06357739
Ni 10.55559943 1.70742077 15.83756618
Ni 12.31552798 17.56356438 15.86113643
Ni 12.26893652 1.69369987 14.05013993
Ni 10.54727433 3.46838130 0.04260994
Ni 10.57987937 5.26072274 1.69233625
Ni 12.35887750 3.50557967 1.77087489
Ni 12.25075815 5.33777572 0.01914060
Ni 10.54112293 3.48815753 3.58501006
Ni 10.59436487 5.33792642 5.33805229
Ni 12.27567654 3.52656960 5.22793316
Ni 12.30760593 5.29248401 3.52468348
Ni 10.59475351 3.51164631 6.94192792
Ni 10.61175729 5.29827173 8.83320104
Ni 12.31541975 3.55377459 8.75358558
Ni 12.31305765 5.29174002 7.04447826
Ni 10.52087809 3.51226796 10.58659218
Ni 10.58627024 5.33555528 12.29631566
Ni 12.32896338 3.50993497 12.31445692
Ni 12.37082610 5.28706145 10.60057869
Ni 10.54859524 3.56017328 14.00290654
Ni 10.53383306 5.25055709 15.88116083
Ni 12.27363679 3.48599418 15.84893893
Ni 12.29609045 5.26818876 14.14068174
Ni 10.50517161 7.09569531 0.08750627
Ni 10.59035724 8.81317943 1.71691189
Ni 12.34616928 7.03442415 1.69098774
Ni 12.25766969 8.83491236 17.58207251
Ni 10.52580780 7.04168330 3.49497554
Ni 10.54510865 8.78952565 5.28863748
Ni 12.27513095 7.05043721 5.26553184
Ni 12.26423420 8.74708849 3.58779197
Ni 10.48899112 7.01295612 7.03538473
Ni 10.60054930 8.75293400 8.86003349
Ni 12.39390610 7.01076457 8.77501367
Ni 12.20554367 8.77432819 6.95443786
Ni 10.63028770 7.09265038 10.49753100
Ni 10.56676841 8.74810665 12.23167515
Ni 12.33387778 7.05069344 12.31971463
Ni 12.33061137 8.86836509 10.54800216
Ni 10.59063591 7.03182372 14.14499040
Ni 10.62147768 8.82351828 15.77956859
Ni 12.21267018 7.07687643 15.84552790
Ni 12.38263790 8.78979913 14.05235523
Ni 10.59154969 10.60999475 0.00210361
Ni 10.63820216 12.40034798 1.79982864
Ni 12.37779197 10.53124054 1.78054579
Ni 12.32721650 12.30791681 0.06045438
Ni 10.58084876 10.52987918 3.56383789
Ni 10.60692025 12.23804298 5.32266359
Ni 12.35110163 10.49740687 5.24483970
Ni 12.44223877 12.35055031 3.49205965
Ni 10.64029405 10.57021101 7.07950864
Ni 10.55114233 12.29320056 8.73463488
Ni 12.40191166 10.55920114 8.76723592
Ni 12.36785360 12.32825452 7.01898895
Ni 10.50125650 10.62089895 10.46297410
Ni 10.46978493 12.27467366 12.29568491
Ni 12.23270249 10.54286657 12.30896583
Ni 12.26125250 12.29159427 10.63826571
Ni 10.54709287 10.56904764 14.07981410
Ni 10.61395980 12.36380229 15.75456334
Ni 12.23167895 10.58499945 15.71900638
Ni 12.37165658 12.33122218 14.07180881
Ni 10.53646887 14.13054179 17.59289709
Ni 10.52837649 15.86042098 1.74243059
Ni 12.33069014 14.08026069 1.71903758
Ni 12.35477358 15.82849590 17.57659459
Ni 10.67796047 14.10656577 3.56660025
Ni 10.58015342 15.86490820 5.31330271
Ni 12.33309265 14.07650263 5.26846725
Ni 12.33899005 15.76169967 3.52351933
Ni 10.47773782 14.04537238 7.04974963
Ni 10.58680201 15.84674829 8.86897921
Ni 12.26942408 14.05486744 8.86441939
Ni 12.28954674 15.85761642 7.10720679
Ni 10.53733511 14.08089462 10.58158652
Ni 10.57428120 15.84380424 12.32198427
Ni 12.28937969 14.08947434 12.31221765
Ni 12.32545175 15.79032582 10.56752775
Ni 10.54258672 14.10202918 14.03932814
Ni 10.54417071 15.83646951 15.81313453
Ni 12.30521407 14.09155259 15.84826627
Ni 12.38007833 15.77921184 14.12513591
Ni 14.11346350 17.59031330 17.55610375
Ni 14.10331884 1.70775837 1.71291676
Ni 15.92718082 0.09609129 1.82453917
Ni 15.83015835 1.79878213 17.55914238
Ni 14.13540482 0.08585067 3.53374668
Ni 14.02706984 1.84259449 5.30167864
Ni 15.82943401 17.52859869 5.39375385
Ni 15.86484079 1.85340020 3.57914568
Ni 14.04627892 17.58595207 7.01585861
Ni 14.07028591 1.77454200 8.76275590
Ni 15.84651265 0.06598421 8.78272146
Ni 15.78299022 1.85428054 7.02049516
Ni 14.13761700 0.07618545 10.57868357
Ni 14.12809681 1.75456650 12.31207144
Ni 15.90170532 17.52218782 12.33734194
Ni 15.84768577 1.76461745 10.60555797
Ni 14.07793499 0.01362964 13.99277583
Ni 14.08713385 1.70831926 15.78148080
Ni 15.83445285 0.05293298 15.81087327
Ni 15.82127257 1.88841874 14.00629793
Ni 13.99874104 3.46381239 17.49740940
Ni 14.16967717 5.22744554 1.67451776
Ni 15.82866234 3.45981574 1.69505540
Ni 15.84999122 5.24928116 17.57489827
Ni 14.00477371 3.50139901 3.47143097
Ni 14.05970723 5.29036697 5.27766928
Ni 15.86008227 3.59993648 5.23822820
Ni 15.72238554 5.25496658 3.47638700
Ni 14.06527519 3.54298500 6.95689442
Ni 14.07405533 5.28307592 8.81720406
Ni 15.81789469 3.51530073 8.78169573
Ni 15.79219865 5.24732101 7.06042150
Ni 14.14186264 3.47538842 10.54025472
Ni 14.14079369 5.29958753 12.36777071
Ni 15.81580337 3.53856717 12.34105550
Ni 15.83300825 5.29868283 10.58740622
Ni 14.06653164 3.61115783 14.18989062
Ni 13.98568057 5.25621993 15.92080196
Ni 15.87255391 3.57268317 15.86103375
Ni 15.80208903 5.28844705 14.17708935
Ni 14.03964504 7.05323529 17.57448653
Ni 14.00125557 8.80037875 1.68491072
Ni 15.88340150 7.03926469 1.71215514
Ni 15.83925103 8.78686830 17.57022791
Ni 14.03841388 7.12717456 3.50131047
Ni 14.07417009 8.76181272 5.25631824
Ni 15.78450058 6.99093206 5.27535647
Ni 15.82912646 8.85380531 3.60013281
Ni 14.08950587 7.13074194 6.99064433
Ni 14.11194598 8.78739067 8.80197742
Ni 15.79122312 7.05416560 8.84174230
Ni 15.85135202 8.81888974 6.96633167
Ni 14.09622664 7.11922856 10.69259800
Ni 14.13210927 8.86229950 12.32753479
Ni 15.88968888 7.14488110 12.41853482
Ni 15.86383394 8.85506394 10.54357769
Ni 14.08884192 6.99387029 14.17439449
Ni 13.99479337 8.85596119 15.91911816
Ni 15.79963401 7.08286771 15.92812896
Ni 15.87275727 8.80113430 14.13935353
Ni 14.06641957 10.59189015 0.00531594
Ni 14.11535547 12.28660481 1.76410804
Ni 15.79216824 10.46687843 1.70773409
Ni 15.91293408 12.35610324 17.57575108
Ni 14.10961898 10.52917623 3.53894418
Ni 14.03731430 12.37582686 5.26208983
Ni 15.83014124 10.61282407 5.29152273
Ni 15.75806759 12.33457922 3.50248579
Ni 14.09106449 10.49245246 6.99076371
Ni 14.11668220 12.28416569 8.84778700
Ni 15.83050453 10.56449458 8.82581035
Ni 15.74478938 12.28754627 7.04505568
Ni 14.07065534 10.60322047 10.58484117
Ni 14.04307515 12.26609743 12.29468980
Ni 15.88645448 10.54083821 12.29113148
Ni 15.88104279 12.29882909 10.46899694
Ni 14.12262614 10.56004109 14.03894571
Ni 14.01684972 12.34425211 15.86131933
Ni 15.83276575 10.59483325 15.90453861
Ni 15.78418145 12.27253670 14.08832258
Ni 14.07844282 14.11256937 0.05230884
Ni 14.12727788 15.90439300 1.75983246
Ni 15.83953318 14.11088211 1.71845796
Ni 15.81061166 15.85660359 17.57284817
Ni 14.11529011 14.12055270 3.44942077
Ni 14.09235275 15.81492039 5.33549038
Ni 15.86776680 14.00892030 5.22345509
Ni 15.86090181 15.89959047 3.54694560
Ni 14.10059535 14.07311154 7.07245866
Ni 14.10220916 15.92585497 8.85912529
Ni 15.88218902 14.12886155 8.80268129
Ni 15.82748959 15.76070464 7.11603345
Ni 14.13797512 14.06856025 10.59324620
Ni 14.15414812 15.75170307 12.30786018
Ni 15.84804139 13.96219063 12.31732707
Ni 15.92608225 15.83177318 10.55724691
Ni 14.14040783 14.04289355 14.08766360
Ni 14.10423247 15.78520252 15.85324673
Ni 15.89496720 14.04076715 15.88406369
Ni 15.82925969 15.80585499 14.13312002
