500
Final configuration Lattice="18.07500000 0 0  0 18.07500000 0  0 0 18.07500000" Properties=species:S:1:pos:R:3
Cu 13.93853027 4.42890420 16.91572244
Cu 3.34038942 16.26421376 0.66502672
Cu 1.54894744 13.99583865 13.16173501
Cu 15.00207161 1.46626712 15.12951565
Cu 13.44448742 15.64757266 9.52029460
Cu 9.36793564 12.57309725 1.08668504
Cu 5.75683838 1.26544399 15.90606170
Cu 2.89335481 3.90882102 8.48177133
Cu 9.07913098 16.59032130 13.92037679
Cu 13.31477387 0.10409274 10.57239928
Cu 10.79968014 1.93178270 13.92556890
Cu 0.04818276 2.29334866 7.55224965
Cu 12.28872345 7.84005265 8.20105487
Cu 16.87759900 4.41505885 10.47425213
Cu 16.77786004 1.23361686 6.09807096
Cu 2.14852842 1.76053329 11.75709373
Cu 0.99226731 16.11818079 14.21493337
Cu 15.10166198 7.50471565 4.23192237
Cu 3.52232010 9.47878463 8.30017427
Cu 13.73215366 14.97193697 15.98748253
Cu 15.01564173 15.66476006 11.15610144
Cu 11.85350250 17.38497573 4.42900072
Cu 14.46649692 1.54801764 9.48933301
Cu 11.30301558 10.26048219 6.28949469
Cu 3.16884130 12.87935954 4.51347415
Cu 12.65566762 0.27655623 7.94433678
Cu 5.22814036 2.14734310 6.45498996
Cu 16.28472236 3.90127051 0.95654712
Cu 16.39418890 5.52415062 8.04786376
Cu 18.05078712 17.44076959 10.55022317
Cu 17.11774087 7.68258527 8.17008376
Cu 17.02910806 1.10907445 11.57870295
Cu 5.22830933 11.80797670 13.68911296
Cu 16.62235251 8.06213447 10.26974572
Cu 16.73238911 2.39061536 9.44628919
Cu 4.13795290 14.60678374 3.01434585
Cu 17.44337903 1.30767649 15.19538751
Cu 4.39569269 14.09620363 12.45371012
Cu 15.97429602 11.91477246 1.83004077
Cu 7.54456381 2.60530027 9.35004582
Cu 2.75814909 3.66268349 15.22884019
Cu 1.84426547 5.64648576 14.42034276
Cu 14.95941128 13.53382936 0.34139993
Cu 2.29551746 16.14122237 16.52831524
Cu 8.44560200 14.76433565 1.72152062
Cu 4.84577495 15.66821793 6.24389856
Cu 17.89027455 10.67588122 5.08938785
Cu 8.92873369 6.07044983 6.16967511
Cu 3.82679179 3.63259688 0.71939844
Cu 7.70737391 9.59645721 10.92576514
Cu 1.60709142 7.84425201 9.03504674
Cu 15.52458694 3.56494111 15.78924942
Cu 3.72864218 9.83132416 2.71567472
Cu 6.98247796 7.85314233 12.88448550
Cu 8.69845345 0.94493291 7.25477904
Cu 0.80603523 6.76325621 4.52439572
Cu 3.54321195 3.70802071 10.80485031
Cu 17.67311245 12.41775788 12.36001686
Cu 16.80183771 9.84025975 12.95809267
Cu 13.40730700 5.25843831 14.94190981
Cu 0.80197401 10.74952917 11.43697715
Cu 2.45196592 16.72147257 7.05408505
Cu 7.31438141 12.04201888 18.01424466
Cu 4.98585107 4.73749958 13.25698813
Cu 3.49910399 7.50489765 15.90008016
Cu 8.19177800 0.97700292 4.97596244
Cu 12.92468860 9.96860810 4.85232402
Cu 0.29024029 9.49232622 17.75092396
Cu 16.82486566 16.77671040 14.87200569
Cu 15.97445964 2.98415877 7.20973368
Cu 3.98083830 12.65093645 10.89167524
Cu 2.96097811 14.74962248 10.66908183
Cu 3.23849233 11.63572750 6.71068662
Cu 18.04188936 0.25139747 13.33035983
Cu 4.50033986 5.37795282 8.93639601
Cu 13.34344551 11.09612079 14.41174829
Cu 17.58182525 2.81171156 16.82780042
Cu 7.44672850 12.36950852 5.41176640
Cu 11.62191301 10.36197827 0.24987640
Cu 13.61509792 12.31162201 17.10173311
Cu 7.96166551 10.93154353 2.13009659
Cu 10.20737486 8.81698461 7.78478798
Cu 5.53733343 9.67093663 7.08799376
Cu 16.76059596 12.93423058 10.07497134
Cu 0.83169157 0.28268845 6.24394742
Cu 5.32509304 18.04061214 17.68133296
Cu 1.26546291 14.58451838 17.87587133
Cu 14.00503547 8.13500296 6.59689849
Cu 4.51035019 12.25781367 2.83528651
Cu 0.20717795 13.66554555 2.06836547
Cu 11.05808181 0.38610991 2.22766642
Cu 0.24550232 4.63496728 8.55311107
Cu 12.82740282 13.47420041 8.73220306
Cu 10.92759535 15.40874984 12.78438615
Cu 3.77250394 2.36320810 16.55172983
Cu 8.90495981 13.37431142 12.05270311
Cu 6.71559820 1.42681417 11.12177467
Cu 10.84205789 8.12698055 1.09605430
Cu 9.39825957 16.25216412 17.72455762
Cu 2.58327382 7.29596049 6.31661653
Cu 7.79739962 0.83543690 16.93435711
Cu 17.88160548 14.66299235 11.32184722
Cu 8.82163179 9.83466823 3.94634118
Cu 15.20486790 9.02856096 0.02126149
Cu 9.33454115 2.74928512 8.29054941
Cu 15.12757544 0.78188385 7.46721564
Cu 2.74120251 17.39884861 13.12130822
Cu 7.83532937 3.20043344 6.50858223
Cu 6.98615682 13.31212250 14.35531699
Cu 15.14053115 1.03226978 12.78827545
Cu 11.85306465 13.76309254 15.53184201
Cu 18.06116851 0.90867109 3.23397124
Cu 13.26284129 2.19432409 11.95065449
Cu 2.91831330 17.73072004 15.30039497
Cu 7.10301024 17.62361935 14.91802250
Cu 11.52443079 2.28711456 7.58118887
Cu 7.49126328 6.84224776 1.24786536
Cu 12.93281313 1.50712177 14.05435007
Cu 10.06883806 9.30241934 14.70828973
Cu 7.06622150 14.97853877 11.02244512
Cu 4.46248361 16.34038015 11.99677715
Cu 1.12409576 13.18290225 15.04358050
Cu 7.24655938 6.86183019 3.48903563
Cu 12.08515917 5.65577380 0.99221458
Cu 1.22054495 3.86190098 3.87933096
Cu 2.23636607 2.27317402 7.00165998
Cu 15.09422843 5.69893850 10.56376759
Cu 2.08154781 5.91413036 9.45375928
Cu 4.15051038 1.06228164 8.08742094
Cu 0.55780368 8.36125984 11.17738213
Cu 1.47203284 4.46257724 6.30100409
Cu 1.22949051 3.40341967 0.44948982
Cu 3.54366677 1.24517241 1.29073260
Cu 7.35138060 6.07431777 16.69291471
Cu 8.23610760 4.72439439 10.71984156
Cu 4.66040064 0.54903047 12.29370902
Cu 15.47585003 2.34282242 17.84012475
Cu 8.64739725 4.98881007 8.28209205
Cu 12.01583334 16.52345680 17.04570267
Cu 16.00891044 8.10884379 14.09943014
Cu 17.53014966 14.17221942 13.59103505
Cu 7.28652157 10.04341714 5.53006800
Cu 13.72751913 10.61103896 6.74282839
Cu 2.77235725 6.07606102 11.89530480
Cu 1.67258947 17.66202263 17.96595177
Cu 6.69806923 5.71643994 5.61683434
Cu 15.96057957 0.10556341 1.03909484
Cu 2.21291007 9.05908679 17.06631917
Cu 5.12745911 15.33174630 1.27283552
Cu 6.99046387 5.68853881 12.17653532
Cu 17.02311716 14.52821704 5.32823241
Cu 4.37416431 2.66745911 12.92735744
Cu 12.56114656 13.14455511 4.98494325
Cu 9.83721905 14.24957992 16.59890121
Cu 10.03849194 11.88534056 3.96802055
Cu 5.93118371 2.80617356 4.00479424
Cu 15.88523572 5.61799160 14.71521002
Cu 12.05545250 3.54833166 15.10619413
Cu 4.11389325 12.84729798 15.36692127
Cu 7.11570020 3.62631080 13.16470464
Cu 5.50543639 3.05242403 8.43418354
Cu 8.89259370 13.77935004 3.64897561
Cu 16.17722928 7.10069104 0.91248199
Cu 13.26909826 14.55092453 12.21612459
Cu 5.46326411 5.39387933 17.51204044
Cu 3.25909694 10.85624121 0.44944207
Cu 2.73143647 1.88519385 9.47186083
Cu 5.92025752 10.00138480 17.89759527
Cu 6.41787642 14.61543468 7.58476526
Cu 3.41371785 9.47828283 5.87384217
Cu 4.66191787 11.32570991 5.14870938
Cu 3.93768330 5.38141841 6.75270496
Cu 5.19831502 12.84147512 7.06891903
Cu 5.15543426 16.80840592 14.53585249
Cu 0.15735872 7.64868610 13.19708851
Cu 7.86664494 11.84724691 10.13006227
Cu 15.58274027 17.60478304 10.58333160
Cu 5.12833210 15.86948724 16.79895459
Cu 6.21541812 13.16570668 11.96215192
Cu 8.97395112 9.24025263 12.85363216
Cu 3.23968363 14.00620477 1.20595241
Cu 7.90904387 2.75916187 1.81296646
Cu 1.86909217 17.55126119 4.46434620
Cu 14.18526127 3.46504392 13.95324964
Cu 6.19002296 17.95736499 4.69800765
Cu 1.76783305 0.03438786 2.36113271
Cu 1.05497859 12.65996579 6.80490442
Cu 1.18337317 5.15391704 16.66787309
Cu 11.10540060 13.77901436 2.60099132
Cu 17.62257263 16.19802361 2.82329188
Cu 2.95412537 7.90024056 3.86286290
Cu 6.49512734 7.20663156 7.81213694
Cu 0.96799287 14.47419358 9.48069101
Cu 11.08949467 14.44313284 10.51879923
Cu 16.76780215 16.61283213 12.43683216
Cu 8.29693534 15.99311865 4.20058036
Cu 6.87771718 13.18156035 2.77240337
Cu 13.20967683 2.31720466 16.55251968
Cu 2.59912728 12.06746069 13.47823924
Cu 17.42701033 16.92192372 7.00862551
Cu 7.13027826 17.23359024 11.90255824
Cu 15.83436377 15.46489182 16.63033019
Cu 1.29828304 0.08568011 8.32683934
Cu 9.42975098 7.05165606 4.20919793
Cu 5.76882510 17.54844575 1.66200424
Cu 1.62830522 15.37266553 2.35413305
Cu 9.72419142 11.12725950 11.50142690
Cu 8.23651751 10.01578663 0.27082457
Cu 0.35330842 12.03940574 0.50271774
Cu 3.11478799 0.55666987 6.06079903
Cu 15.90457970 7.04416183 12.05946354
Cu 3.17737681 14.01502812 16.83859102
Cu 15.01765312 5.32622402 4.96652897
Cu 2.69271212 6.17523453 0.21900247
Cu 9.81659231 5.48573818 16.26252970
Cu 11.32835190 5.90530782 13.54627289
Cu 5.69200573 9.17956672 11.91741466
Cu 4.06850531 8.68128211 0.32411001
Cu 12.94572961 15.69236615 13.86451311
Cu 11.18082773 12.07527675 17.19251027
Cu 12.96225729 8.78504405 17.82204076
Cu 10.24032653 16.04666007 3.03225385
Cu 10.68400529 8.37261387 16.76869216
Cu 7.24352150 14.54699076 5.56734340
Cu 9.60801613 2.16275918 2.81941620
Cu 8.12892800 14.03314252 17.83070765
Cu 10.55343854 0.64946997 8.69569215
Cu 13.97145605 5.70577476 6.84941482
Cu 17.43559419 2.51403846 4.62161084
Cu 4.69111693 1.64922292 10.31950665
Cu 9.90444596 16.29816808 5.55975403
Cu 13.65274975 8.55415660 10.42063184
Cu 12.29210442 10.27557343 16.15304252
Cu 3.96461893 6.64314514 2.13809505
Cu 9.96043278 8.39071244 9.94187312
Cu 4.18370834 5.29354728 15.74915468
Cu 9.76766628 0.06668175 3.88925693
Cu 13.56118655 4.94491908 12.32911829
Cu 4.38793810 7.41115481 7.46419553
Cu 10.57648890 3.30353623 9.94458538
Cu 5.53184371 8.65237433 15.51325529
Cu 1.44761711 4.17435551 10.67616367
Cu 10.50562215 4.51707427 4.56890079
Cu 13.51309609 14.23620192 2.60482207
Cu 5.26672076 14.28287650 9.67658834
Cu 6.03252824 7.73066184 17.75677501
Cu 3.99892018 3.76222873 3.02839606
Cu 15.86861973 13.01605837 3.67393263
Cu 15.68782741 9.74201777 1.80274086
Cu 4.62171219 11.64904685 8.68734560
Cu 10.82202171 6.10510152 10.52513595
Cu 3.91350406 7.09843692 13.55946284
Cu 14.45750201 9.58066733 3.52033704
Cu 6.02107811 4.11251284 10.27546809
Cu 12.70500540 3.70662885 5.36975390
Cu 1.56350716 12.99359489 11.14491513
Cu 6.53361931 1.20793219 13.59860833
Cu 13.27575563 2.24840076 2.78471753
Cu 6.52149534 15.62387279 3.39799086
Cu 1.52406336 1.72643922 4.67876636
Cu 2.52634773 17.76195651 10.56186099
Cu 10.96631282 14.53421986 7.81609228
Cu 11.52548085 3.79566377 12.79541652
Cu 6.63088735 9.16170547 1.72600753
Cu 0.48837774 10.41799404 2.42975158
Cu 11.28999085 3.81009455 2.35710066
Cu 17.16566303 13.97332231 18.05373851
Cu 11.66859873 8.06815956 5.74021073
Cu 12.83095518 6.34051706 9.62289254
Cu 12.95224376 7.35792101 12.17937214
Cu 9.39142562 7.17119600 14.92734870
Cu 6.89576103 11.69413821 7.98475239
Cu 5.37430188 6.65888107 11.14086053
Cu 11.15814042 8.50353270 12.36872446
Cu 8.40217822 12.57788187 16.00714708
Cu 1.86978890 12.01477897 9.12277845
Cu 2.58062179 5.71978368 4.54943494
Cu 8.72476509 11.69355831 14.01689453
Cu 17.68002089 0.98607325 0.19190994
Cu 5.71188804 11.27974601 10.89449548
Cu 11.51960812 17.12282808 11.36479998
Cu 0.01383149 17.66967135 16.41268336
Cu 7.45896726 7.00071484 10.33215559
Cu 12.57129172 4.31218696 8.05524044
Cu 10.90010481 0.33864250 6.22995161
Cu 17.05445597 16.04180386 8.92702601
Cu 3.10399236 15.64213206 4.70280036
Cu 0.98255143 15.08395356 7.34656347
Cu 4.06813521 16.02405405 8.84963477
Cu 6.29057893 4.13800328 15.32837916
Cu 13.82156656 11.24389641 9.44182775
Cu 5.33310856 8.21166453 3.32098137
Cu 5.48211598 17.47772170 10.23319286
Cu 2.21961661 3.81633925 12.63530755
Cu 13.70208732 12.97741880 6.71589072
Cu 9.77769997 2.09505601 15.84544994
Cu 0.60813296 8.86025059 3.79946280
Cu 8.34461360 3.94699974 16.74431604
Cu 15.43762135 13.54015194 12.41539332
Cu 10.19139730 10.33767314 1.72378718
Cu 10.40044866 13.76975499 5.38847618
Cu 9.52420320 3.83928636 0.69805092
Cu 7.83106977 9.06912594 16.11555303
Cu 15.29072792 2.93786242 11.51587544
Cu 8.50934651 8.14909298 5.98886581
Cu 7.35407054 11.19613896 12.23972377
Cu 9.01521545 17.21665776 9.55954399
Cu 2.03217325 12.14249388 2.50631498
Cu 13.86152995 13.41997588 14.47125159
Cu 7.74226068 9.53377727 7.94817235
Cu 9.14275746 17.92222952 11.87084974
Cu 14.33818222 17.18435675 14.72123764
Cu 5.55341308 9.01191215 9.39578731
Cu 4.88244041 4.01769275 5.50119897
Cu 8.71108650 7.81102783 17.57476182
Cu 6.39118068 5.07127941 8.09433425
Cu 7.78725777 15.22155524 15.77825491
Cu 9.89922709 6.27353633 0.35504816
Cu 0.99392756 15.19679339 4.42608304
Cu 13.79806310 9.07989896 13.62717138
Cu 14.21921893 10.98338676 0.77189544
Cu 10.39092283 4.40346918 6.67687611
Cu 16.16882766 7.68837199 16.58960674
Cu 11.99174321 5.92974255 5.05641213
Cu 5.46494182 2.08046815 1.82311892
Cu 2.19067794 4.84374048 2.16209683
Cu 5.03990336 17.57310453 6.85388525
Cu 8.40092851 3.76493098 4.26916256
Cu 13.86600866 0.44929958 3.88815693
Cu 11.07778443 17.78124190 13.63663988
Cu 8.65372870 5.23384090 2.56591222
Cu 16.96742777 6.84087918 3.36468268
Cu 0.50359946 8.48821357 6.16001773
Cu 16.88128329 0.19348157 8.88326353
Cu 6.01295359 6.54380532 14.64554042
Cu 0.01448201 6.58452058 15.11296492
Cu 3.59886228 1.23414778 3.88721613
Cu 9.15012514 15.87894069 11.37950820
Cu 6.99658290 16.51430171 9.00482703
Cu 12.94597637 14.48957055 0.04649394
Cu 12.10218857 6.31780822 16.88659484
Cu 14.39857319 6.86715678 13.65657355
Cu 1.57572938 8.30481182 14.98187872
Cu 0.87266905 7.50448933 17.64425537
Cu 9.99019807 2.34602426 5.84676397
Cu 12.32058232 10.07982030 8.33401709
Cu 17.56164028 11.46907865 8.42355603
Cu 1.42554307 6.86515484 2.37454779
Cu 14.22048983 7.44306776 2.10439278
Cu 13.70954282 17.15488684 5.91977581
Cu 0.29064090 10.93197437 13.67576341
Cu 4.13175679 10.50796372 16.27762009
Cu 17.34211599 13.71706763 8.10118266
Cu 6.94458731 9.76467112 14.25092553
Cu 6.60787987 0.78865393 8.48293171
Cu 3.89445553 9.43251168 14.19805024
Cu 4.14798235 1.31341797 14.52613109
Cu 16.17659891 14.57203049 2.15158104
Cu 14.13058726 6.52681359 17.84578632
Cu 1.58127640 10.59736648 15.44290979
Cu 4.86646190 5.80162839 3.97447054
Cu 18.04616937 6.25079275 10.77741253
Cu 9.34963375 16.09174621 7.70550556
Cu 11.00445290 14.36537075 0.52271644
Cu 17.88269958 8.41465011 1.82021064
Cu 11.47890858 11.88550228 7.84229045
Cu 1.42764530 1.73751518 16.61736996
Cu 0.64204148 1.72711362 10.00016659
Cu 15.95790406 11.91289918 14.28759658
Cu 8.34887510 14.54037193 9.38227374
Cu 12.55065989 7.54044675 3.48388103
Cu 9.58167293 12.76234827 9.22706059
Cu 17.90447466 9.52141113 9.27543460
Cu 5.82327785 11.24386734 1.54897238
Cu 11.80661671 9.45105955 10.34702789
Cu 10.90665680 6.09588290 2.88885297
Cu 14.71051274 10.61237424 16.15207594
Cu 10.75000114 9.03538479 3.60791469
Cu 4.55502676 12.60055189 17.76276191
Cu 3.62660636 10.64733765 12.09526789
Cu 9.40273187 10.62871344 16.76947909
Cu 11.55049150 11.89184256 10.27737331
Cu 8.83154997 13.67583003 7.34073316
Cu 11.74731562 15.26776006 4.25337115
Cu 14.48450391 14.50039534 4.74689766
Cu 12.26951897 12.54593407 1.18650408
Cu 8.32780662 5.36209615 13.98443270
Cu 7.12967210 15.70882758 13.46077231
Cu 15.73298825 11.42769030 11.88512352
Cu 2.13993001 11.95679360 17.08306401
Cu 11.30531267 10.72225708 13.15402928
Cu 15.44486367 12.06370075 8.07756090
Cu 15.26728091 14.26477410 9.12393578
Cu 7.21537895 16.63607051 17.85987674
Cu 2.12460609 2.33798353 2.47837878
Cu 15.87775451 0.15828823 16.92296600
Cu 8.55598636 7.38169789 8.18159769
Cu 16.60522799 10.93953116 17.62544209
Cu 12.16778707 16.16057367 1.74342692
Cu 12.92652081 1.30320429 5.66749982
Cu 14.96732804 3.63368906 3.22901824
Cu 1.69674576 1.98810996 14.17473783
Cu 15.89205241 6.92962458 6.27141970
Cu 5.96552366 8.11349056 5.41264808
Cu 15.06310378 2.03192111 4.92530416
Cu 8.53274685 1.59486040 13.33866961
Cu 2.28844053 8.86328023 1.57769684
Cu 5.22790345 13.48316152 4.92179491
Cu 8.90970425 14.29114705 13.94906517
Cu 14.82595082 4.29710773 8.99334920
Cu 9.59953487 10.61829657 8.97520156
Cu 17.07110923 5.42355800 17.13823877
Cu 5.83918164 5.01833381 1.87942547
Cu 7.50058875 16.68755454 6.66850706
Cu 10.99725244 13.27415852 12.92872197
Cu 11.15313470 1.22503016 11.72411349
Cu 11.43648001 4.32485704 17.27973211
Cu 10.67084840 5.83932345 8.51579107
Cu 11.93203043 7.67424254 14.76041680
Cu 11.00975460 11.78202355 14.95061615
Cu 18.00741507 12.48029681 3.90266685
Cu 2.30866969 8.90686974 12.87117404
Cu 1.12674703 16.29294216 11.95114263
Cu 11.63328028 0.54929889 17.93304338
Cu 8.38917095 17.38828662 1.67725950
Cu 12.89314582 4.18701085 10.27379993
Cu 13.56784546 0.36380597 1.30650792
Cu 14.93105974 7.34901402 8.57604877
Cu 17.37313694 5.81988503 12.97682001
Cu 1.92023667 10.69159874 4.29990027
Cu 3.80903112 7.78100137 9.94007738
Cu 15.55644587 1.89817582 2.29039487
Cu 10.89847091 15.83496434 15.48173697
Cu 12.10476820 2.58688224 0.63498697
Cu 9.32004354 7.02322745 12.52299205
Cu 0.18330558 6.23831703 6.63371978
Cu 15.26903421 9.25827899 11.80804088
Cu 16.28468408 2.54392037 13.74137319
Cu 12.32499546 0.05378450 15.83278269
Cu 0.02631107 3.91033927 14.77671367
Cu 12.34012731 2.03292748 9.69582569
Cu 13.96984670 8.08319467 15.78629370
Cu 0.09941006 5.21848846 1.19976603
Cu 15.25005750 5.64959607 2.17376500
Cu 9.44329947 3.27088338 12.17317230
Cu 14.17058581 17.08199338 12.40202584
Cu 7.52106763 0.96325942 2.83445832
Cu 2.78196612 9.87039823 10.26026271
Cu 18.03731604 3.71626091 12.39226593
Cu 16.37103448 9.53004312 6.76726704
Cu 6.19850130 10.52300235 3.52394267
Cu 9.70545003 17.99993517 16.08161191
Cu 17.14749440 4.36935764 5.96078551
Cu 16.85565288 4.55364274 3.93237625
Cu 13.07731800 10.97524107 11.86889735
Cu 3.51552691 13.73119194 8.58355021
Cu 10.10302786 3.95267771 14.52234540
Cu 9.38405136 1.30740805 0.60143508
Cu 11.29118782 2.26324191 4.27218317
Cu 13.20330566 5.02300566 3.61613271
Cu 17.70369698 3.22752484 2.44478598
Cu 17.83375912 16.88467468 4.95989347
Cu 14.57206275 16.22067684 1.23372671
Cu 8.85325177 8.30761255 2.45116370
Cu 16.10020093 18.01900470 3.36796313
Cu 15.08701549 9.72436651 8.57862843
Cu 6.50039190 11.27580387 15.91593278
Cu 16.58711532 9.87550748 15.16141838
Cu 13.63363893 2.58670616 7.53068888
Cu 5.19316413 14.63602938 14.49025597
Cu 14.79043377 11.19681986 4.98081109
Cu 16.55951434 9.18024263 4.27583570
Cu 3.15107681 14.12826575 6.32990207
Cu 15.63139279 15.19809877 13.88718415
Cu 15.13830715 16.56910423 7.86615653
Cu 1.43816774 9.95762073 7.79511628
Cu 12.76204845 9.34737163 2.00130503
Cu 11.88086926 11.17853995 3.13632399
Cu 17.85678744 11.67838543 15.78119353
Cu 3.23114190 15.63350068 14.36003943
Cu 13.87983056 13.16747717 10.66747996
Cu 11.17373416 16.30982290 9.20789572
Cu 4.58409833 16.94611377 3.52769174
Cu 16.92815532 16.21345809 0.18967054
Cu 14.20528406 16.39446414 3.36357751
Cu 9.17021113 10.91540917 6.63824116
Cu 11.62725124 16.37324403 6.74263868
Cu 15.53124212 14.50372929 6.79258446
Cu 13.20041803 15.04918894 7.19631013
Cu 9.03547831 1.29550308 10.46988214
Cu 7.65763918 2.26573654 15.39102992
Cu 6.28420292 2.94263208 17.43210674
Cu 15.70725675 13.01025352 16.05120230
Cu 0.01895450 15.22543478 16.21303357
Cu 16.76887705 12.28201785 5.94573168
Cu 15.57255224 16.65010683 5.17843413
Cu 14.17738897 11.65037221 2.88184544
Cu 6.07545515 13.87932030 16.54492621
Cu 14.01168753 17.10595455 17.18767310
Cu 14.04267106 3.72422459 1.31000362
