500
Final configuration Lattice="19.45000000 0 0  0 19.45000000 0  0 0 19.45000000" Properties=species:S:1:pos:R:3
Pd 19.41460974 0.06841155 19.40434874
Pd 0.05974162 1.96827370 1.85894867
Pd 1.93616846 0.06540436 1.86458938
Pd 2.03197176 1.93991733 19.42618116
Pd 19.42961344 19.43238753 3.84469253
Pd 19.40467498 1.93896306 5.86255572
Pd 2.05752134 0.06916914 5.86659414
Pd 1.97214329 1.93929376 3.89572555
Pd 19.40479833 0.01397007 7.84519854
Pd 0.07682626 1.90619703 9.63002209
Pd 1.97684451 0.01894867 9.68840656
Pd 2.00505287 1.90596315 7.75796575
Pd 0.06598313 19.42685331 11.66474827
Pd 0.08141461 2.02721689 13.62395701
Pd 1.99813676 0.02652941 13.69042619
Pd 1.92626130 1.99803910 11.57939001
Pd 0.12324571 19.39521017 15.64984719
Pd 0.09127369 2.01311892 17.41621639
Pd 2.04662228 0.04922843 17.45677685
Pd 2.02892057 1.99084568 15.58149770
Pd 0.05722013 3.91454404 19.42931660
Pd 0.02872534 5.86096541 1.86893550
Pd 1.98814468 3.87457720 1.88286547
Pd 1.94161103 5.84720981 19.42659276
Pd 0.03310531 3.87383489 3.84938089
Pd 19.41036412 5.81668591 5.77811400
Pd 2.00094607 3.84431921 5.80867064
Pd 1.92171777 5.87859536 3.91111310
Pd 19.44320849 3.95756401 7.70583992
Pd 0.00684797 5.85296858 9.64203542
Pd 1.92431627 3.99935853 9.71043565
Pd 1.99022198 5.97621914 7.62791681
Pd 0.02294734 3.93046856 11.68466336
Pd 0.03366420 5.84165598 13.65866216
Pd 1.95876664 3.95684948 13.62678839
Pd 1.94035221 5.91303923 11.67881596
Pd 0.06003162 3.91372118 15.56152763
Pd 0.05731721 5.81371404 17.44739457
Pd 2.06088187 3.89453638 17.52547382
Pd 2.03592132 5.75771436 15.56584140
Pd 0.08710754 7.74410808 19.40566105
Pd 19.38347692 9.65957179 1.92703642
Pd 1.94149656 7.84972348 1.88624464
Pd 1.96960960 9.75178254 0.02072791
Pd 19.39393823 7.72106023 3.85418582
Pd 19.44442275 9.73445460 5.91560869
Pd 1.81437741 7.87557496 5.75144169
Pd 1.82042349 9.81825974 3.85955546
Pd 0.04452718 7.78856482 7.82400590
Pd 0.02112434 9.61700305 9.69998582
Pd 2.01083131 7.72719085 9.74782299
Pd 1.95665965 9.65326107 7.80022326
Pd 19.44130412 7.74118474 11.60840117
Pd 0.01215379 9.71662251 13.61662058
Pd 2.04286200 7.68630195 13.68689123
Pd 1.86177783 9.67056295 11.61248374
Pd 0.10394960 7.84092786 15.61183631
Pd 0.05151089 9.77784050 17.60169408
Pd 1.97416301 7.81195823 17.55844604
Pd 1.93688035 9.74490903 15.56212571
Pd 19.41614359 11.72394467 0.05124929
Pd 0.06809102 13.65842881 2.02624694
Pd 1.99973606 11.68048450 1.90599166
Pd 1.90059339 13.59585270 0.04740856
Pd 19.35901905 11.74019348 3.94930687
Pd 19.40720549 13.63634217 5.87316628
Pd 1.95093057 11.62305226 5.86732078
Pd 1.92391004 13.59937344 3.93683542
Pd 0.04619095 11.66604809 7.86300619
Pd 0.03282842 13.61007338 9.71731902
Pd 1.90654719 11.58026088 9.72090875
Pd 1.90915402 13.61752938 7.84832079
Pd 0.02089481 11.66626799 11.71486997
Pd 0.03434685 13.58890804 13.64727323
Pd 1.99686459 11.61587555 13.64080304
Pd 1.95667696 13.54753947 11.63065538
Pd 0.02619361 11.61728305 15.54923538
Pd 19.40545137 13.65715421 17.48874731
Pd 1.93579153 11.69784201 17.55645802
Pd 1.88577656 13.52805399 15.56775289
Pd 19.44087211 15.54479315 0.02719694
Pd 19.35850298 17.51002167 1.95012310
Pd 1.90971294 15.66054397 1.98668304
Pd 1.92437071 17.54783962 0.00129935
Pd 0.06718304 15.62001153 3.86839374
Pd 19.40907415 17.53851333 5.88062801
Pd 1.87059388 15.48796209 5.88704304
Pd 1.91874898 17.53187821 3.94445085
Pd 19.36173945 15.47262294 7.85221235
Pd 0.03632345 17.50647379 9.80030715
Pd 2.02932426 15.62113197 9.75746450
Pd 1.85143344 17.49014756 7.72216853
Pd 0.08890591 15.53276598 11.68096436
Pd 0.11018345 17.55118149 13.63397526
Pd 2.14405528 15.55767971 13.56165593
Pd 1.98150121 17.57762722 11.66092618
Pd 0.00557725 15.61352171 15.46167191
Pd 0.05561470 17.45043334 17.44287713
Pd 1.93312350 15.55844013 17.48108060
Pd 2.04889672 17.48839382 15.55537864
Pd 3.97745706 19.44889198 19.35594459
Pd 3.88879841 1.94465948 1.96066218
Pd 5.72213335 19.43833498 1.96549260
Pd 5.81471671 1.98203735 19.41045057
Pd 3.83828697 19.40787264 3.94817448
Pd 3.89093773 1.95575562 5.83185986
Pd 5.72731340 19.43838928 5.82450550
Pd 5.84153950 1.90192100 3.94849264
Pd 3.89884449 19.43116955 7.72678005
Pd 3.87143223 1.96182632 9.64985158
Pd 5.82388785 0.05067145 9.67520476
Pd 5.86660000 1.92755680 7.75304739
Pd 3.96293748 19.44695400 11.62230735
Pd 3.85698259 2.04527578 13.48284216
Pd 5.89724274 0.05833166 13.52077928
Pd 5.89482184 1.98809112 11.62597832
Pd 4.08623357 0.00330273 15.54196884
Pd 3.90818724 2.00541709 17.46230068
Pd 5.93024726 0.04242851 17.45888698
Pd 5.94706891 2.03864518 15.47479165
Pd 3.98231948 3.86661214 0.01574852
Pd 3.83965841 5.86792920 1.99274591
Pd 5.83896123 3.89706497 1.96302567
Pd 5.78571650 5.83389023 0.09354041
Pd 3.91474228 3.91020354 3.91974722
Pd 3.85873876 5.89774446 5.72952720
Pd 5.86445047 3.88295378 5.82770824
Pd 5.88894916 5.85209100 3.92382266
Pd 3.90098340 3.95068482 7.73825879
Pd 3.90278975 5.80840943 9.74561848
Pd 5.83505544 3.85327715 9.61723722
Pd 5.85233995 5.83729848 7.68555697
Pd 3.91531664 3.86279215 11.57248233
Pd 3.96922807 5.77122624 13.58104332
Pd 5.95668175 4.00320132 13.57463060
Pd 5.89498675 5.80952843 11.60148625
Pd 3.99908999 3.91845101 15.55222412
Pd 3.94541905 5.81415224 17.57274325
Pd 5.81226092 3.88718338 17.50774456
Pd 5.90940790 5.96500625 15.70173442
Pd 3.79952914 7.85145511 0.00817483
Pd 3.84636731 9.73023167 1.90078451
Pd 5.78297175 7.80014620 2.09106324
Pd 5.83308879 9.70001346 0.05086740
Pd 3.78286115 7.79774208 3.87459156
Pd 3.78394691 9.72080663 5.81532372
Pd 5.79819518 7.77162118 5.72800865
Pd 5.77836425 9.78770003 3.84411073
Pd 4.00574428 7.83362086 7.70961222
Pd 3.96227460 9.72293664 9.70421989
Pd 5.79801441 7.74668249 9.67324944
Pd 5.80653636 9.76973081 7.75103214
Pd 3.93646905 7.77642566 11.62319231
Pd 3.85835551 9.69764106 13.57437892
Pd 5.74673458 7.85147200 13.61658768
Pd 5.87926714 9.64785428 11.60629107
Pd 3.93785988 7.81306232 15.64376336
Pd 3.89683640 9.76061483 17.54438600
Pd 5.80855490 7.81214957 17.63395269
Pd 5.74809984 9.69863705 15.56872857
Pd 3.88478113 11.60870696 19.39812131
Pd 3.89941769 13.59007414 1.99672165
Pd 5.83835079 11.64242843 2.01682125
Pd 5.74567787 13.55149925 19.41037590
Pd 3.88711716 11.75814642 4.00781969
Pd 3.92253299 13.64281142 5.92054744
Pd 5.84340911 11.74274210 5.92557231
Pd 5.86017033 13.57668796 3.91796817
Pd 3.83789678 11.58632504 7.81739826
Pd 3.88829129 13.52943420 9.73597300
Pd 5.85901671 11.69699417 9.70933158
Pd 5.81066277 13.65667137 7.81981779
Pd 3.79028619 11.60228951 11.57894177
Pd 3.99374258 13.53749199 13.65219632
Pd 5.89297311 11.54401563 13.54644706
Pd 5.89264722 13.53530265 11.61529677
Pd 3.92394601 11.74554775 15.54687591
Pd 3.86931316 13.58139861 17.54763707
Pd 5.86877134 11.62232480 17.43001787
Pd 5.90134346 13.56405009 15.54640381
Pd 3.93359572 15.55196524 19.39087977
Pd 3.87812401 17.63909146 1.92937009
Pd 5.78863187 15.39722890 1.96140638
Pd 5.89434397 17.47855022 0.00469383
Pd 3.88577748 15.53707630 3.88136601
Pd 3.88659789 17.42002773 5.87060148
Pd 5.89530126 15.66096723 5.80082711
Pd 5.78523029 17.54634512 3.90845470
Pd 3.87553025 15.58518964 7.77559690
Pd 3.83962367 17.50884433 9.65422565
Pd 5.84364815 15.57330364 9.72189831
Pd 5.86032263 17.53457419 7.75747343
Pd 3.99690622 15.50516006 11.64960783
Pd 4.02458168 17.60979628 13.64259777
Pd 5.79684902 15.59240084 13.57664323
Pd 5.82220614 17.50237909 11.54746986
Pd 3.97539611 15.53020005 15.55577343
Pd 3.90589504 17.43156459 17.41489075
Pd 5.88338649 15.48847266 17.48519714
Pd 5.88533745 17.45241887 15.59221787
Pd 7.78273597 0.01510770 19.42697944
Pd 7.83294113 1.92118203 1.87185355
Pd 9.64375574 19.41125413 1.92468664
Pd 9.71532895 1.93054447 19.43938222
Pd 7.77409410 19.40931763 3.80860940
Pd 7.79224224 1.95322958 5.79105876
Pd 9.76746348 19.44333712 5.82103567
Pd 9.79644414 1.93631383 3.88870518
Pd 7.81435768 0.03009530 7.69424667
Pd 7.80809404 1.92653724 9.70275239
Pd 9.70071611 19.40196474 9.80699308
Pd 9.69411775 1.86829120 7.88201652
Pd 7.75411942 19.39354990 11.55468859
Pd 7.72411162 1.97145416 13.61976731
Pd 9.73729988 19.33060632 13.51965063
Pd 9.66281032 1.98615852 11.69182108
Pd 7.80607431 0.00105129 15.43819129
Pd 7.82065205 2.01486172 17.54214021
Pd 9.68069984 19.38504186 17.52803117
Pd 9.76657689 1.84708673 15.52729691
Pd 7.87206566 3.92804403 0.00096328
Pd 7.80285677 5.86509478 2.03243134
Pd 9.73958791 3.88580566 1.94998304
Pd 9.70808480 5.88832552 0.03644174
Pd 7.82742505 3.88666175 3.92560328
Pd 7.80409430 5.81073814 5.83055198
Pd 9.73010344 3.78991143 5.89894786
Pd 9.81170274 5.78396424 3.92436524
Pd 7.85131314 3.87463896 7.80120922
Pd 7.68618796 5.83725277 9.63281778
Pd 9.78982836 3.91959229 9.74477277
Pd 9.63501862 5.80502788 7.83678467
Pd 7.74276854 3.90293445 11.71264600
Pd 7.73902708 5.97974457 13.64133692
Pd 9.69153122 3.95310862 13.60390131
Pd 9.72355684 5.80971048 11.69294833
Pd 7.85150303 3.92707454 15.59795606
Pd 7.77510359 5.89674274 17.63925608
Pd 9.78061705 3.82277912 17.51804338
Pd 9.71430432 5.90739436 15.55479243
Pd 7.71396525 7.78981033 0.02226868
Pd 7.79736346 9.75456669 2.04571613
Pd 9.69441047 7.77846627 1.97758134
Pd 9.68819347 9.71753705 0.02934682
Pd 7.81387918 7.77204152 3.91452618
Pd 7.73377262 9.68846500 5.80119655
Pd 9.65795453 7.76834441 5.79757276
Pd 9.78686797 9.77630350 3.94053189
Pd 7.75806786 7.75921507 7.76148068
Pd 7.76281539 9.72213002 9.59920261
Pd 9.73774335 7.66402363 9.73297439
Pd 9.71022101 9.71968508 7.75825633
Pd 7.76496973 7.82838426 11.52337384
Pd 7.76898411 9.68204751 13.66426039
Pd 9.64510676 7.80935010 13.58886488
Pd 9.72216589 9.66216011 11.60413485
Pd 7.78585350 7.88465478 15.59922507
Pd 7.72531882 9.70877844 17.56443302
Pd 9.70025680 7.84719292 17.50812921
Pd 9.73158432 9.73953609 15.58294787
Pd 7.74676875 11.56311188 0.05354316
Pd 7.78937386 13.56836013 1.92125432
Pd 9.74358333 11.64843889 1.98733078
Pd 9.67032540 13.65755605 19.39578582
Pd 7.84921013 11.68503698 3.98233282
Pd 7.75620882 13.63725247 5.92896342
Pd 9.70927965 11.67676712 5.86055897
Pd 9.76634525 13.57947563 3.89404445
Pd 7.81840698 11.68292122 7.88019624
Pd 7.82956596 13.64660833 9.72437097
Pd 9.70981190 11.62285839 9.78980371
Pd 9.73300236 13.57158487 7.87717047
Pd 7.79031756 11.64881849 11.64979740
Pd 7.72888814 13.66296215 13.54301048
Pd 9.63764394 11.61842418 13.59347006
Pd 9.72954796 13.57575456 11.62839250
Pd 7.85768095 11.62565546 15.60608362
Pd 7.84372898 13.58065814 17.49819666
Pd 9.79188862 11.60738453 17.52379268
Pd 9.68358399 13.70169238 15.53280364
Pd 7.72083156 15.49465337 19.44847836
Pd 7.70512982 17.49735618 2.02751954
Pd 9.70419212 15.45208361 1.90539959
Pd 9.64352966 17.46638195 0.11831455
Pd 7.73732489 15.51567736 3.83666834
Pd 7.84616060 17.60470515 5.81223167
Pd 9.60385858 15.44537235 5.82979712
Pd 9.72889178 17.42712733 3.82559553
Pd 7.80489326 15.62622769 7.86711687
Pd 7.82283301 17.56647116 9.69171763
Pd 9.78642154 15.55962005 9.76625055
Pd 9.78814523 17.51911946 7.81439043
Pd 7.78998535 15.57023546 11.64824381
Pd 7.69956228 17.48695033 13.45556098
Pd 9.65861135 15.54183768 13.63908596
Pd 9.75724834 17.40728891 11.63987662
Pd 7.75385233 15.56205773 15.62297881
Pd 7.74067462 17.45557623 17.49316143
Pd 9.72719097 15.55242128 17.47814228
Pd 9.64906888 17.47508000 15.56750580
Pd 11.62678297 19.40862194 0.01562252
Pd 11.70818647 1.88752616 1.91340522
Pd 13.61189828 19.38938416 1.87488391
Pd 13.50964714 1.99152009 19.35708930
Pd 11.68785038 19.34245578 3.80899637
Pd 11.63196677 1.98151372 5.87745168
Pd 13.59220547 0.00280183 5.84765160
Pd 13.50507942 1.92109007 3.86783514
Pd 11.69830165 19.43679105 7.81205313
Pd 11.68240832 1.91908013 9.73899455
Pd 13.58231563 19.44793651 9.76276856
Pd 13.63991399 1.96387745 7.77261406
Pd 11.68079830 0.07487455 11.70836113
Pd 11.68597267 2.03725322 13.57973349
Pd 13.60229775 19.34707243 13.64086425
Pd 13.64050909 1.96248261 11.73213552
Pd 11.59113335 19.37907893 15.57332519
Pd 11.68062549 1.94847234 17.50916373
Pd 13.53001701 19.44894871 17.55170751
Pd 13.57622657 1.86517099 15.60629601
Pd 11.62178973 3.92294966 0.03474993
Pd 11.67256310 5.87759251 1.95005463
Pd 13.56877390 3.81353636 1.92078211
Pd 13.59174018 5.79259708 0.00720104
Pd 11.66594995 3.84858774 3.91694471
Pd 11.61044546 5.78012235 5.87734513
Pd 13.52367777 3.88037713 5.88161788
Pd 13.49075063 5.82754005 3.93567971
Pd 11.70272451 3.93952481 7.85337498
Pd 11.64443040 5.88286877 9.72880777
Pd 13.67228898 3.89935538 9.79202557
Pd 13.62111503 5.76566790 7.77572419
Pd 11.63546106 3.92694426 11.66306257
Pd 11.69962445 5.91230762 13.64214958
Pd 13.64491579 3.91915292 13.59986030
Pd 13.58598780 5.82938821 11.68812162
Pd 11.61152827 3.92238759 15.56712671
Pd 11.58553872 5.82147608 17.51573987
Pd 13.60861968 3.86547756 17.48493576
Pd 13.59942451 5.79172495 15.62708017
Pd 11.69775933 7.85525133 19.44043631
Pd 11.66259514 9.70246901 1.96859961
Pd 13.52241670 7.82457827 1.95662099
Pd 13.59081279 9.80257353 19.44538487
Pd 11.60903673 7.77614870 3.95633737
Pd 11.63522940 9.75147025 5.87127790
Pd 13.59559572 7.86546332 5.84864517
Pd 13.58006245 9.82186956 3.92403637
Pd 11.58028958 7.75391300 7.74233424
Pd 11.70976624 9.74509184 9.63578081
Pd 13.61715865 7.80037648 9.74383395
Pd 13.69197702 9.76044130 7.73206750
Pd 11.68885892 7.80259195 11.61840018
Pd 11.60750343 9.71970081 13.63697304
Pd 13.68558177 7.81645357 13.78216763
Pd 13.50939061 9.69742426 11.71770841
Pd 11.75489441 7.78926021 15.64352984
Pd 11.63351749 9.68929693 17.62713080
Pd 13.65441177 7.86826995 17.52932886
Pd 13.54996697 9.75369388 15.59445030
Pd 11.70125784 11.73055707 19.44513014
Pd 11.66844261 13.66978339 1.97598609
Pd 13.67139105 11.76462671 2.00951032
Pd 13.54765854 13.65113897 0.05661005
Pd 11.65675097 11.67765142 3.90470464
Pd 11.57159868 13.61989706 5.74560409
Pd 13.62700951 11.73130373 5.79795647
Pd 13.63683515 13.59316123 3.89919439
Pd 11.63456436 11.71430979 7.73615099
Pd 11.77517948 13.56602692 9.75086451
Pd 13.58065066 11.63581146 9.66119450
Pd 13.56151939 13.64523467 7.76387721
Pd 11.73624692 11.67508303 11.65573129
Pd 11.62113244 13.59596512 13.58019083
Pd 13.63783972 11.65676726 13.64285137
Pd 13.63128781 13.56382974 11.77024996
Pd 11.68395699 11.70176491 15.51616606
Pd 11.61675796 13.60102717 17.40784283
Pd 13.58542176 11.67619727 17.46958702
Pd 13.61728597 13.56112539 15.53036423
Pd 11.78209129 15.54948339 19.41265906
Pd 11.71212280 17.43441910 1.89762697
Pd 13.65340181 15.63543474 1.95686181
Pd 13.66524343 17.50242058 19.44903672
Pd 11.73898019 15.52347583 3.89061005
Pd 11.58626578 17.45729318 5.87908037
Pd 13.61867241 15.58087600 5.83774878
Pd 13.64297872 17.56206872 3.87971881
Pd 11.64494733 15.50760026 7.78520551
Pd 11.67133993 17.48618810 9.76924356
Pd 13.53139180 15.51791719 9.77279972
Pd 13.66669860 17.46260593 7.86095214
Pd 11.68588504 15.52286492 11.71895570
Pd 11.64695622 17.43385103 13.61557034
Pd 13.61902529 15.57386061 13.65040068
Pd 13.54066167 17.53448870 11.63683481
Pd 11.72264309 15.54786651 15.51648900
Pd 11.63275533 17.41036230 17.49110515
Pd 13.62506518 15.54089563 17.64422955
Pd 13.63514730 17.35578256 15.58484763
Pd 15.57439733 0.05757942 19.41696980
Pd 15.54451058 2.07710290 1.86475589
Pd 17.40201969 19.43980310 1.87837615
Pd 17.54989346 2.06582273 19.35955671
Pd 15.49945101 0.05891450 3.87177771
Pd 15.47429048 1.98710408 5.85286675
Pd 17.49180988 0.02262315 5.83509350
Pd 17.58137216 1.97261324 3.79096229
Pd 15.52430472 19.40477340 7.84198848
Pd 15.51794731 2.00443233 9.79102792
Pd 17.54264299 0.05160355 9.77875203
Pd 17.46058047 1.92396847 7.85962338
Pd 15.59003037 19.41199454 11.68053246
Pd 15.59510210 1.83050045 13.63564169
Pd 17.55053622 19.43855626 13.69270935
Pd 17.55953968 2.00057980 11.62980417
Pd 15.54046824 19.39929775 15.55214595
Pd 15.53159980 1.92025638 17.44333612
Pd 17.51929442 19.40812357 17.47075740
Pd 17.53899532 1.94076598 15.54885327
Pd 15.55666036 3.96319982 19.36358346
Pd 15.46038621 5.80114730 1.96734928
Pd 17.59012656 3.97145791 1.84158310
Pd 17.44429168 5.83837770 19.34307301
Pd 15.57619813 3.87575167 3.85486694
Pd 15.48272319 5.88822172 5.76925128
Pd 17.48389202 3.85694576 5.78544785
Pd 17.44759245 5.78965539 3.84128140
Pd 15.56533322 3.87399022 7.80733669
Pd 15.57059715 5.77254706 9.70864055
Pd 17.53185524 3.93208137 9.72989456
Pd 17.46992388 5.87448722 7.69356015
Pd 15.61226523 3.80988519 11.68523503
Pd 15.57440107 5.91063804 13.69638851
Pd 17.54811527 3.85395049 13.65696650
Pd 17.43861738 5.84888593 11.62515984
Pd 15.55903332 3.91342586 15.63122475
Pd 15.48096566 5.88256671 17.43788740
Pd 17.47149474 3.88521066 17.40782192
Pd 17.55709738 5.85809366 15.58165485
Pd 15.48405061 7.77792718 0.04773117
Pd 15.62232987 9.65587675 1.90971783
Pd 17.55721798 7.71976416 1.89425149
Pd 17.50701087 9.80285124 0.00377665
Pd 15.53326788 7.77376309 3.69159047
Pd 15.57422726 9.75542150 5.83397917
Pd 17.52495177 7.83115638 5.79918625
Pd 17.49544367 9.63689313 3.95690638
Pd 15.57654758 7.81668255 7.71925405
Pd 15.54765327 9.70255740 9.71895237
Pd 17.46430085 7.75704150 9.72716794
Pd 17.49735704 9.81381830 7.82210772
Pd 15.56590608 7.74420680 11.73555772
Pd 15.56471921 9.68589313 13.66786989
Pd 17.57401827 7.81893038 13.64361685
Pd 17.45828753 9.68115590 11.71167378
Pd 15.61313441 7.84864181 15.68489390
Pd 15.49595787 9.78636726 17.51946653
Pd 17.55284422 7.85635352 17.60409183
Pd 17.54712310 9.75357362 15.61319765
Pd 15.58861989 11.71918274 19.43542268
Pd 15.55019747 13.66738579 1.96747618
Pd 17.50396995 11.74792595 1.94878235
Pd 17.51044415 13.65707297 0.05451142
Pd 15.62648663 11.68413210 3.85634391
Pd 15.55833997 13.64910789 5.73446605
Pd 17.50590293 11.70886502 5.86922805
Pd 17.48875727 13.73396121 3.82361970
Pd 15.53971360 11.79840039 7.78460578
Pd 15.58940204 13.68805009 9.73892517
Pd 17.51141296 11.55573503 9.80816347
Pd 17.54479895 13.52710724 7.87688697
Pd 15.43474927 11.61002581 11.61763927
Pd 15.60575508 13.59321603 13.65995971
Pd 17.52011763 11.60889823 13.60467124
Pd 17.52089492 13.45336798 11.65959651
Pd 15.54754485 11.71518318 15.64555751
Pd 15.58194256 13.59591714 17.52330667
Pd 17.49321625 11.66925408 17.52266117
Pd 17.52232837 13.63853026 15.56038967
Pd 15.61568281 15.53128128 19.42252690
Pd 15.59284591 17.48419544 1.96663938
Pd 17.53994950 15.63092792 1.91719783
Pd 17.50363242 17.52926856 19.38253737
Pd 15.51228916 15.57104794 3.89249779
Pd 15.55308593 17.43457481 5.80133719
Pd 17.50048773 15.52469568 5.93039582
Pd 17.46646823 17.47003502 3.91829196
Pd 15.50756965 15.50525831 7.86120602
Pd 15.55078452 17.51402844 9.86863159
Pd 17.50906711 15.62665168 9.77286218
Pd 17.42643122 17.46929452 7.84110846
Pd 15.54431648 15.51622006 11.75560919
Pd 15.44880141 17.48845622 13.65353666
Pd 17.51362197 15.52663193 13.64569850
Pd 17.58398043 17.44572147 11.83056370
Pd 15.55091344 15.51546402 15.55011323
Pd 15.57372058 17.49455303 17.52369423
Pd 17.48226834 15.60427150 17.47569269
Pd 17.61551298 17.49539533 15.50497182
