500
Final configuration Lattice="18.07500000 0 0  0 18.07500000 0  0 0 18.07500000" Properties=species:S:1:pos:R:3
Cu 15.67427261 6.00628423 7.62543759
Cu 5.63706628 5.15292860 6.84429357
Cu 2.33291118 15.26189860 6.38621925
Cu 9.67384978 15.94297425 3.00286230
Cu 4.30117615 12.73805586 14.22168272
Cu 11.37235408 16.89866140 7.14672263
Cu 11.04661360 13.29418590 7.69105772
Cu 11.80309357 3.38663074 15.99262530
Cu 4.88101355 16.02385642 5.86383690
Cu 2.27572280 14.70314333 10.73370245
Cu 13.77640157 2.12352818 12.33943603
Cu 1.29096116 0.62234108 6.23358255
Cu 12.79443992 15.93022971 16.73153771
Cu 5.08010078 1.63015240 3.20308185
Cu 7.25929658 6.90256821 3.38784804
Cu 4.07027148 16.32748628 3.14672000
Cu 6.65075737 1.06295850 6.89544931
Cu 3.84431688 16.22446976 0.77685950
Cu 15.32395980 14.84741583 1.46835762
Cu 11.40148737 6.63226588 0.64994829
Cu 15.32962408 7.18992052 5.44876291
Cu 6.80443780 1.06051273 2.00671816
Cu 11.54429230 3.27777751 3.89203405
Cu 11.49259629 11.89974399 14.43561585
Cu 1.57535925 16.18364174 17.27013986
Cu 12.51238426 5.20084554 14.46891677
Cu 0.64775149 14.54899060 7.45442759
Cu 15.36523083 1.54663960 3.46615832
Cu 17.56929796 16.85977492 17.92307064
Cu 12.91503955 5.46166622 1.92577462
Cu 5.46825450 6.92426120 5.33350845
Cu 1.29091232 4.98831504 5.30972153
Cu 2.91584712 12.80351671 3.47351899
Cu 2.49157623 11.13925286 15.83593973
Cu 2.75577757 2.30722261 1.82643757
Cu 10.64245641 4.21724998 5.74827112
Cu 8.68704971 0.69109015 0.51265885
Cu 1.24078386 1.48996774 0.59310099
Cu 4.70501662 6.89879415 13.80575492
Cu 0.26697046 10.89776078 4.33061992
Cu 8.68588688 16.59353650 17.94792986
Cu 2.99871567 18.02901098 0.05538823
Cu 11.58267891 0.08473012 15.78749996
Cu 1.04056795 12.05237383 2.75717215
Cu 16.51190261 7.48725747 2.95336145
Cu 5.63517205 9.02398391 7.48331233
Cu 13.61302170 6.31897036 6.87720933
Cu 6.96422210 15.60943988 6.67552859
Cu 4.56832760 8.86778816 10.14105193
Cu 9.66331910 15.41654405 9.86946469
Cu 7.26931468 2.97659488 3.50815772
Cu 2.23040611 7.44317345 5.42355707
Cu 15.81690220 1.45108641 9.16681288
Cu 17.12864728 5.55191444 14.63304696
Cu 7.11003489 6.13847281 10.03347071
Cu 17.55913051 1.79096773 15.60460639
Cu 5.52252478 0.89591187 15.66207888
Cu 7.20067051 6.68278624 15.26215232
Cu 10.24687328 14.07502504 12.06447670
Cu 9.60894244 10.64717587 7.40145642
Cu 17.63101698 5.87244392 10.05552345
Cu 5.48069832 15.18099227 16.89626898
Cu 3.19345900 17.02595366 5.11234154
Cu 16.06337156 10.45126549 11.62209489
Cu 16.44618318 15.20922328 8.11369356
Cu 15.23434816 15.73070251 14.66144190
Cu 11.84273761 15.20389647 8.53793524
Cu 4.39646778 14.09349884 6.49515744
Cu 16.83418975 1.11420204 13.39980197
Cu 13.01123093 11.53191420 0.83884781
Cu 15.44024396 16.44189996 6.71610693
Cu 7.70683666 12.91850887 13.12958828
Cu 0.41788173 10.28128598 14.53279246
Cu 3.95397089 8.78350566 15.39208820
Cu 0.17284914 6.76979287 6.32573430
Cu 5.76143381 1.87395395 13.32573173
Cu 6.81683569 11.30353588 6.18243432
Cu 0.12375336 0.31275699 4.28276663
Cu 0.17740377 15.94373027 9.26795437
Cu 16.90416948 13.07643139 17.46861444
Cu 7.15938650 13.42131457 5.52528289
Cu 3.35987315 1.85106556 16.20002281
Cu 14.90949128 4.26163528 13.32280519
Cu 14.46226068 1.06455554 14.28169342
Cu 11.99560511 12.99253541 16.23425043
Cu 12.25106329 3.35404393 1.73185737
Cu 1.18771003 16.94548650 1.18713233
Cu 0.75288829 12.17128256 16.61469525
Cu 15.42836119 11.78139857 14.01248422
Cu 16.13253428 13.16179883 8.86280639
Cu 6.28613211 13.22793585 2.60505917
Cu 6.54501688 8.89762698 3.98714303
Cu 15.72165726 7.14068889 10.04753646
Cu 0.67059142 4.24220706 1.04333083
Cu 8.72621289 0.67766662 6.86316840
Cu 13.10649229 15.24333733 6.57466445
Cu 12.71040256 4.80215754 11.84681911
Cu 6.83410812 1.86199589 17.75772373
Cu 14.69013725 13.97791969 15.97881501
Cu 13.98142712 14.22634228 8.49616296
Cu 17.19519889 9.31893985 16.81949430
Cu 3.13628951 17.33271908 7.51741371
Cu 9.54432963 0.17954404 2.47150844
Cu 13.79796444 6.72958579 3.73577738
Cu 9.59269432 5.75520395 17.81873863
Cu 9.36224984 10.34296570 5.19424529
Cu 8.98370824 12.74063714 17.56864905
Cu 4.27560781 12.19803243 16.46371726
Cu 3.05917085 3.66768660 0.06235520
Cu 17.80868862 2.19490606 7.38224643
Cu 8.53791503 10.47383645 0.19936971
Cu 6.88487341 17.66657392 5.18900463
Cu 1.16326130 3.72716650 8.41375924
Cu 10.27043856 3.28509944 14.02641311
Cu 16.55381525 14.58008975 10.29160958
Cu 13.52915613 10.22076990 13.92331496
Cu 7.03200485 11.41942465 16.40552781
Cu 0.75883253 15.97619459 12.25917692
Cu 14.16678970 13.30753429 10.53438200
Cu 5.16236717 3.42144753 17.20332103
Cu 11.19137474 9.64694339 14.66331244
Cu 3.19544288 11.54891176 5.81081488
Cu 10.64227802 14.25885706 14.29049680
Cu 15.10889883 3.90131602 2.93229713
Cu 0.32597060 14.64428892 4.27620481
Cu 3.11246255 2.57563011 7.77697419
Cu 5.27355311 17.76767755 3.74568377
Cu 11.49926864 8.99688062 8.69856379
Cu 1.19329782 14.04763067 17.76720765
Cu 13.86424031 4.60137445 8.47502238
Cu 2.66505852 16.91336012 12.40388767
Cu 12.52675470 8.81137738 0.43960252
Cu 13.57401807 9.10711236 4.61810931
Cu 12.01713787 12.00266754 12.35143562
Cu 2.00075740 10.63893670 11.52033435
Cu 8.93212052 10.66922579 2.56195237
Cu 5.33414271 17.50656690 13.63144812
Cu 0.37146318 16.03965351 14.26829711
Cu 7.16435424 4.80014524 16.76881250
Cu 0.64947375 9.53022178 2.28653404
Cu 15.14581482 8.38745128 8.27516259
Cu 1.21694851 9.91191985 8.90789756
Cu 17.31567393 0.19914238 2.00838888
Cu 3.77556974 6.99515262 10.94711613
Cu 0.38209131 13.44888115 9.39834290
Cu 9.38989877 7.91700325 10.65325339
Cu 2.68574653 7.57170910 12.95083510
Cu 7.36704957 17.23410071 8.47756108
Cu 2.00139758 6.59264387 8.91395579
Cu 6.25781872 9.07151853 0.19578001
Cu 1.78200504 14.24514149 15.40240118
Cu 11.67476835 0.49070027 3.63852662
Cu 12.92329543 12.16813333 8.84411512
Cu 10.62201001 13.57163226 4.61760085
Cu 7.37374864 3.38505282 6.08165508
Cu 8.63625074 12.86549385 15.10700271
Cu 0.00472657 8.83159894 12.62126316
Cu 7.46729666 14.48740435 9.45240943
Cu 18.02459538 6.79923373 16.78151826
Cu 7.66468574 7.88899213 5.45762140
Cu 4.27390757 15.20560665 10.60540864
Cu 13.07270698 2.91193568 14.18723578
Cu 7.11356354 11.50562069 3.97453776
Cu 9.69698582 1.16568339 14.92375692
Cu 17.31908976 8.70709444 10.31352350
Cu 13.32573671 4.28235900 4.86247538
Cu 10.49743999 9.62577975 11.88441962
Cu 6.56542690 11.20042783 0.83647999
Cu 1.85207414 4.60300165 12.54777971
Cu 4.11518079 17.09626081 16.08266319
Cu 17.53415849 13.59549073 1.41084080
Cu 6.76734334 7.23475803 7.61724950
Cu 4.20704704 0.56585114 11.19854556
Cu 8.11283908 8.84567380 1.91536133
Cu 13.79850743 2.28328635 7.75561350
Cu 10.21756557 9.24687731 1.30742047
Cu 4.68117895 12.93885756 9.61400375
Cu 3.62100230 2.45998524 12.17456480
Cu 1.18150235 0.36098908 13.15553949
Cu 5.34986216 9.64208287 2.22689024
Cu 7.14220044 3.78329242 14.96252886
Cu 9.52544457 17.53503999 9.04387254
Cu 5.31159896 5.02433882 15.42313925
Cu 8.04678351 6.66079934 12.36197664
Cu 10.51969295 5.08578947 2.31976852
Cu 8.66075039 5.61678892 7.74130757
Cu 10.12523389 1.70661083 9.59418994
Cu 15.08661653 14.08189389 5.72505911
Cu 15.54955110 11.20620535 9.17893277
Cu 8.28289917 3.50364307 18.03282215
Cu 16.06800643 12.73289179 11.87929108
Cu 11.09324109 1.39419283 1.12212943
Cu 12.59440367 14.50052734 1.71476538
Cu 1.45020650 16.78835322 3.33561252
Cu 2.99310715 4.30274254 15.78181636
Cu 12.94043657 11.34845037 4.05844030
Cu 16.72638572 11.40847773 15.73211910
Cu 0.87175043 1.89071910 2.87086569
Cu 17.85888141 11.33139100 12.55793280
Cu 5.46473521 17.33791747 1.54547848
Cu 1.47003984 8.36213318 15.87637319
Cu 12.90457343 8.48501318 7.08600616
Cu 15.84868849 1.84962242 6.68366642
Cu 15.15806099 2.13530394 0.55933665
Cu 6.34576162 6.82080348 1.04366218
Cu 14.96874174 3.67416600 6.68031725
Cu 6.72223093 10.22233742 11.19264652
Cu 15.30867027 16.77654368 2.22122715
Cu 14.42877804 13.64998795 13.78273136
Cu 15.87583161 3.05045261 14.74451996
Cu 15.48966907 15.56986236 17.29111411
Cu 11.16289971 11.17360358 9.18090849
Cu 9.58537909 7.78326400 4.09080789
Cu 13.04054683 0.16187282 7.17735710
Cu 6.36283284 15.38164350 4.15793624
Cu 5.84642244 3.74501823 1.17099553
Cu 6.21184784 10.83027157 8.85305204
Cu 17.10979395 2.45975018 1.47010132
Cu 4.27632214 7.47113725 2.08506336
Cu 13.17692195 17.89130428 12.31100447
Cu 1.27940483 9.68666255 17.79525541
Cu 9.14894249 2.54136004 2.14709572
Cu 9.42621832 2.31889684 4.46717057
Cu 16.54719776 4.62455946 0.80580686
Cu 0.71216591 6.48124853 1.63734360
Cu 8.07722185 2.79760346 8.15244030
Cu 14.05812337 6.31799019 15.60274389
Cu 9.00405016 14.35144849 8.09050008
Cu 3.67573728 9.42150914 6.13020250
Cu 2.00758501 3.93023719 3.09381166
Cu 7.79779026 1.00879289 13.43488008
Cu 13.40251202 17.25814992 14.54800613
Cu 14.06289195 10.06705505 2.29625256
Cu 14.52681319 8.95159084 16.55653055
Cu 13.16120464 0.64852804 0.88600979
Cu 10.40023337 8.49196587 6.82538543
Cu 7.92715421 0.81599908 4.02625540
Cu 8.83769419 5.16722096 14.07483826
Cu 17.93778108 8.44501375 0.75312176
Cu 7.66026408 9.54007675 7.53020792
Cu 1.66610982 5.96980011 14.46698910
Cu 6.10896861 7.43825506 11.47782596
Cu 7.56484162 16.51261319 2.43326330
Cu 5.17141624 16.98707397 9.92983812
Cu 11.36017276 5.41511663 16.73156534
Cu 5.55015979 14.96151091 1.19056430
Cu 12.78449387 13.87142516 4.13722582
Cu 1.13031626 12.70298924 6.09520379
Cu 12.31455451 3.69958223 6.92446766
Cu 14.98893496 12.07421985 7.14955868
Cu 8.03217429 4.89350308 1.72026935
Cu 9.65695180 11.87612222 11.29235958
Cu 7.42634546 12.13499138 10.55755531
Cu 3.62018203 4.70389482 5.99219791
Cu 6.03955106 13.71619826 11.20978196
Cu 5.41797658 3.01929636 7.29818514
Cu 8.45088043 14.66608038 16.34035299
Cu 1.43679006 6.32091129 11.16053777
Cu 0.00562095 11.32400515 0.69634537
Cu 13.10838161 12.72416860 5.83781044
Cu 0.54446910 16.50610460 6.03995495
Cu 6.22311303 1.53484076 9.41077195
Cu 11.94742281 2.60443642 9.40569187
Cu 9.15894118 12.40952799 6.19111703
Cu 7.25843509 8.52295786 9.55244951
Cu 7.44675866 9.14981655 16.24124695
Cu 10.38766339 12.73549203 2.40311906
Cu 9.02529439 16.41608937 7.28274623
Cu 9.21014361 6.99930970 1.84016505
Cu 4.00277031 10.97501926 10.58810437
Cu 9.68285271 5.33440256 11.04293702
Cu 14.76277073 0.96103729 16.51057076
Cu 17.11582642 3.24074836 17.28881207
Cu 11.08067770 11.68049355 5.19361306
Cu 16.51035097 5.28808330 16.74179789
Cu 6.42976660 16.55568964 15.45919830
Cu 8.20905314 3.21206704 12.98311043
Cu 3.43497080 14.35880787 17.90993206
Cu 11.50288275 5.53472034 3.95298019
Cu 7.76356304 1.30159188 15.81948701
Cu 3.68343083 14.83167216 12.64662519
Cu 10.94302986 17.81007310 17.82413058
Cu 7.73884549 14.87514726 0.84750113
Cu 17.71491485 11.84481501 7.72718267
Cu 2.43586085 11.62898080 0.26019942
Cu 10.70807328 16.39774117 14.61154690
Cu 7.31803362 12.65860797 7.59932189
Cu 9.00887424 7.74883583 8.29449572
Cu 11.50209238 1.09114242 13.44552287
Cu 13.62112254 17.70708233 3.41435652
Cu 11.32768929 9.23472617 4.66996874
Cu 11.99734198 5.07973310 9.72682967
Cu 17.10835035 18.04963469 6.93701162
Cu 9.92188799 1.51318526 12.09059915
Cu 1.73933312 2.17957514 14.52233566
Cu 6.82766916 17.42143028 17.42214366
Cu 12.90753152 1.82723526 17.18897772
Cu 11.54474690 6.73623856 10.96316951
Cu 0.52059697 8.85411893 4.63852229
Cu 9.58917251 4.31614819 15.94276452
Cu 17.33835617 0.39466405 11.03454817
Cu 10.17273965 3.94898169 8.32506904
Cu 11.73565091 1.68703157 5.41174713
Cu 13.75127926 0.68452698 9.32197483
Cu 11.42001439 8.06621922 2.81534750
Cu 7.36951255 5.49750419 5.65906434
Cu 10.12351247 7.35339894 12.90751465
Cu 2.49926836 16.91621903 14.82617896
Cu 8.70897467 17.24426179 15.36146459
Cu 3.48966340 7.07492518 7.11605711
Cu 5.69839358 4.24563141 4.85978852
Cu 3.46916056 6.46489663 15.47952600
Cu 2.88472737 7.48803299 0.48811508
Cu 13.20404631 7.30444106 9.06196467
Cu 1.02096833 2.73456282 4.75809292
Cu 9.53680536 11.32476437 15.99373296
Cu 16.07404150 4.84874701 5.05261306
Cu 10.80878723 15.48303307 17.22263983
Cu 16.96074778 12.64529413 5.26820252
Cu 11.91857556 1.01501167 11.15256516
Cu 15.66813102 8.10902543 0.34417395
Cu 10.49189136 15.26862649 1.16539717
Cu 15.18305400 17.63795885 0.14266628
Cu 2.16553417 12.25856428 10.22335896
Cu 8.16682451 4.13401888 10.14668666
Cu 11.07128047 6.59168867 8.26599153
Cu 10.43136167 1.93666500 7.06504619
Cu 8.12949529 2.07379727 10.85897075
Cu 2.71173823 13.72418730 8.87098466
Cu 4.97867962 11.21050536 12.74431544
Cu 14.63399184 15.49413018 4.12117069
Cu 17.55414055 3.93687379 12.38931091
Cu 4.62020166 5.91834525 17.81111844
Cu 5.70739510 5.55104043 2.66117589
Cu 4.36124761 3.08118192 14.43242529
Cu 4.36216084 3.12324022 9.62786852
Cu 15.87493954 7.37420688 15.48154730
Cu 6.17194318 13.49270820 17.80407318
Cu 10.63747507 3.83077179 0.04217785
Cu 13.93569144 15.76194912 12.87485777
Cu 8.87347908 8.45711912 14.65439804
Cu 9.23481353 12.33593991 9.03697701
Cu 2.87320529 14.76307657 4.29222677
Cu 2.33937621 10.26812231 3.80491014
Cu 12.15083701 16.68306301 5.06265861
Cu 3.65133628 2.66145164 5.19588106
Cu 8.45087213 13.80930389 3.53255884
Cu 11.77740625 7.23359255 14.25485402
Cu 16.98767701 2.25698748 4.67441416
Cu 5.26167265 10.64446446 4.90125398
Cu 4.01215928 0.81060706 6.21997385
Cu 5.15455443 5.01812087 10.62789368
Cu 6.39059647 14.62052433 13.43858604
Cu 8.23651609 17.62497887 10.75381225
Cu 2.02892494 8.31895441 10.42274316
Cu 0.07294347 13.41418895 11.50014318
Cu 14.42203003 7.84778083 2.17010876
Cu 12.43440071 8.22969050 16.45107951
Cu 16.60664554 3.66221147 8.92699631
Cu 4.97201981 10.62827569 15.22054948
Cu 10.31023707 15.29174941 5.81497118
Cu 4.22063377 8.67476784 4.25450921
Cu 1.74512574 14.23359659 12.96641416
Cu 4.17984620 14.23215747 2.72436062
Cu 15.56746571 10.73968343 17.88512161
Cu 11.46593938 10.72022931 2.70712655
Cu 17.17539943 4.53460846 3.06121692
Cu 5.55851897 7.69084069 16.61017481
Cu 1.01861469 2.12440147 12.12869765
Cu 2.33516142 11.71387635 8.04356301
Cu 0.50935972 6.65859830 3.94139284
Cu 8.70382951 10.23114463 9.69568069
Cu 4.60102960 7.10598367 8.93648397
Cu 6.35126456 13.49105952 15.23562720
Cu 14.83899340 9.87312781 6.27420047
Cu 14.24297774 11.67864074 12.13441434
Cu 12.51795232 8.53126007 12.45368217
Cu 8.29259710 8.84447362 12.30667168
Cu 12.52501697 10.65354719 16.81102088
Cu 15.01842999 8.87571853 12.51670735
Cu 3.40264493 5.07690817 8.24842776
Cu 5.61187899 1.91728250 5.19307838
Cu 9.62396355 8.70377317 17.30859427
Cu 17.38303716 15.77882026 2.03625374
Cu 1.93531288 14.73085251 2.07702009
Cu 17.46065558 7.71421820 14.13042350
Cu 7.87194530 7.47804279 17.45786342
Cu 12.60457718 10.12521692 10.99840877
Cu 6.17510185 4.43428100 8.75619568
Cu 6.29871117 3.19557713 11.49859153
Cu 16.16185439 16.90069110 12.93339038
Cu 4.32026686 9.99295745 17.59496942
Cu 16.14906670 13.72363196 3.31363119
Cu 6.48081857 5.13953464 13.15696416
Cu 2.54888561 0.99421161 4.09617421
Cu 13.84717947 2.18493334 5.08353642
Cu 9.51010017 6.23164718 5.67084320
Cu 13.47233265 2.01237919 2.84535177
Cu 0.75141231 4.01106339 10.78175115
Cu 8.51903392 15.50808943 4.81540898
Cu 10.97570324 16.99641007 10.77668078
Cu 2.15550752 2.18519128 9.76967367
Cu 0.34689284 12.94519546 14.67031211
Cu 6.28208616 0.30811707 11.49194214
Cu 17.34572910 14.97104249 15.88023895
Cu 7.36712388 16.67283078 13.18865904
Cu 15.66552381 5.07878797 11.26170023
Cu 11.24903440 17.30511652 1.59433892
Cu 14.14973071 3.76500700 15.98016237
Cu 5.38644558 17.70781854 7.87654042
Cu 11.55872281 15.95729654 12.46729720
Cu 16.67914740 16.73354753 4.39151041
Cu 2.34470904 11.86405044 13.37892067
Cu 16.25305804 9.56766201 3.72256901
Cu 16.81744631 8.83148198 6.08182010
Cu 10.71399786 5.17390007 12.86683694
Cu 11.49797521 0.08488685 9.08832807
Cu 4.57867545 1.48673597 0.17890746
Cu 9.97291531 17.67607909 4.99784782
Cu 8.78837041 4.48992087 4.32262640
Cu 14.93320285 5.78578592 2.03348726
Cu 14.32099472 3.18496868 10.50706598
Cu 4.73110732 15.03409013 14.72872445
Cu 16.14163217 9.39565017 14.47479489
Cu 1.84780183 8.40394490 7.43440943
Cu 16.41462914 2.45522520 11.17913253
Cu 4.41654995 8.71919978 12.45980188
Cu 3.34502112 9.66560608 8.22921563
Cu 3.64859288 0.94801048 14.10850188
Cu 14.49159660 0.04442533 5.48878350
Cu 10.99508969 13.52067729 0.16341329
Cu 17.11056379 14.69373801 6.09209932
Cu 18.07027343 1.86910337 9.51225511
Cu 1.01495639 10.35048504 6.59661903
Cu 16.53677071 17.71926721 15.67369524
Cu 4.92971071 12.83912819 4.31462441
Cu 1.94538068 5.62132501 17.66991494
Cu 10.17497886 1.77504046 17.13429285
Cu 12.65352992 15.14910947 14.55907250
Cu 13.64837946 8.17656135 14.41231812
Cu 16.51846955 17.40981053 8.76818784
Cu 17.47695457 0.94038662 17.65631450
Cu 2.81254952 9.78814938 13.72467748
Cu 4.39866055 3.92782114 3.00527374
Cu 12.09953264 15.87038271 3.07132014
Cu 2.13572712 7.62513581 2.88464475
Cu 13.25553862 16.68783009 0.85339001
Cu 11.97350047 6.97835031 5.69425585
Cu 5.01845261 11.98607102 7.36348941
Cu 3.58712916 0.42649426 2.32172968
Cu 9.41596567 17.12648642 12.63174795
Cu 17.15422877 9.34008628 8.18791155
Cu 13.85566930 6.44112977 11.20094563
Cu 16.62191887 11.63298707 2.35722827
Cu 14.44863867 11.53436352 15.97620598
Cu 2.86082295 17.03082247 9.76634913
Cu 14.23562073 12.72906563 2.44937043
Cu 4.42648129 12.28636862 1.13038345
Cu 17.67739286 11.18973347 10.28954581
Cu 17.71764351 4.88402974 7.36225363
Cu 8.63100542 15.17664337 13.90660656
Cu 11.49994282 13.59844048 10.14157616
Cu 8.13417736 14.58771362 11.75772829
Cu 3.19589289 5.11283550 1.71389907
Cu 9.73111459 6.82463426 15.73647019
Cu 10.71245135 11.07582057 0.08907137
Cu 8.13571611 12.82646252 1.50162122
Cu 3.70492521 12.87171739 11.92748902
Cu 3.94289905 0.99639274 8.95105584
Cu 15.07752131 0.54870489 11.32291704
Cu 12.09242459 10.82330386 7.14688908
Cu 0.74742538 4.05274274 14.32565283
Cu 13.83836313 10.10184118 8.69964923
Cu 16.79949517 6.98966628 12.15975613
Cu 6.29855744 16.00819964 11.51453344
Cu 14.91674031 9.24946762 10.37447619
Cu 6.82397731 10.96523608 13.93381864
Cu 0.69420602 17.90203339 15.97384331
Cu 14.84098726 6.82445938 13.18209256
Cu 2.90845444 4.49769207 10.49646064
Cu 0.71675966 17.82021445 8.25359271
Cu 12.93493948 4.30668584 17.93295688
Cu 13.92359980 6.57247291 17.70933276
Cu 6.35009071 8.79462124 14.40964357
Cu 15.16103044 11.22396277 4.55188658
Cu 0.02872780 7.46561115 8.41712787
Cu 5.48693560 15.15815631 8.34580147
Cu 15.19983678 16.38207662 10.86415859
Cu 10.91971148 3.28290581 11.23981461
Cu 1.19340707 3.28335873 17.05613464
Cu 9.00512604 10.80629942 13.59484523
Cu 12.82226125 15.80872242 10.59175600
Cu 14.06849465 16.67522876 8.54377014
Cu 3.93823375 4.88417965 12.66013280
Cu 16.92018056 14.49252058 13.09016898
Cu 14.52220094 13.14974153 17.97911536
Cu 3.08519224 9.60689163 1.57117720
Cu 3.52602526 5.87554690 4.12235922
Cu 12.67925723 14.10700177 12.29166866
Cu 1.29039941 0.02536531 10.75012928
