500
Final configuration Lattice="18.07500000 0 0  0 18.07500000 0  0 0 18.07500000" Properties=species:S:1:pos:R:3
Cu 0.02587611 0.04028165 17.96163611
Cu 0.05296485 1.79576113 1.46102853
Cu 1.81686670 0.11578828 1.64513410
Cu 2.02892794 1.96140522 18.05736949
Cu 0.09547515 0.05182471 3.54443464
Cu 0.03068918 1.90487776 5.44549293
Cu 1.81648271 17.98324935 5.39347065
Cu 1.62653635 1.76448233 3.44540637
Cu 0.07927421 17.91602155 7.00049739
Cu 17.98076134 1.76575265 8.77044730
Cu 1.68781476 0.19311673 9.00240616
Cu 1.73526382 1.69208546 7.13661890
Cu 18.00612772 0.09620980 10.72893153
Cu 18.01503433 1.83713587 12.33410279
Cu 1.74307006 0.14955252 12.56816015
Cu 1.86130269 1.85280864 10.69711981
Cu 0.08610987 0.26790216 14.41064528
Cu 0.06668257 1.84647541 16.42359225
Cu 1.56524760 17.73805475 16.12471900
Cu 1.88348828 1.85059328 14.67969928
Cu 17.88759556 3.79348227 0.16847861
Cu 17.89161546 5.56642213 1.83061189
Cu 1.78503935 3.44214688 1.76312743
Cu 1.59058769 5.41913895 0.21974666
Cu 0.15815746 3.70450476 3.63845113
Cu 0.01015871 5.37405709 5.34682235
Cu 2.01532967 3.38710249 5.39779382
Cu 1.99568520 5.28230903 3.66773934
Cu 18.06704560 3.65714773 7.04119369
Cu 17.95552704 5.46346596 8.95014756
Cu 1.89674842 3.51831169 8.97238370
Cu 1.71534489 5.37378031 7.00448455
Cu 18.04637932 3.65431636 10.42037779
Cu 0.28522499 5.18101908 12.38867356
Cu 1.87323363 3.40095610 12.97339808
Cu 1.89085953 5.40099935 10.83279316
Cu 0.15982801 3.69632465 14.56960264
Cu 17.92356832 5.30403417 16.28107583
Cu 1.65554488 3.56155567 16.43339577
Cu 1.83986845 5.43606886 14.26741465
Cu 18.01182656 7.22202201 0.27498813
Cu 17.92110187 9.01239523 1.88567658
Cu 1.55400619 7.21284730 2.06567352
Cu 1.75850085 9.00946040 0.25818546
Cu 17.93895137 7.20428163 3.68566005
Cu 18.04299915 8.96632207 5.42441827
Cu 1.70398757 7.27920534 5.35890152
Cu 1.77194514 9.06944355 3.62803741
Cu 17.95752753 7.08153780 7.13947462
Cu 0.02801165 9.02487227 9.16730295
Cu 1.69043357 7.01513322 8.99933213
Cu 1.93037436 8.98854537 7.25274209
Cu 0.22167266 7.22811693 10.95259410
Cu 0.07461936 8.95544170 12.60241411
Cu 2.04337730 7.13302992 12.60816156
Cu 1.88921509 9.04645519 10.85037315
Cu 0.06574921 7.02171276 14.12883376
Cu 18.03716118 8.94868979 16.38341292
Cu 1.80045416 7.00926649 16.34982768
Cu 1.69916556 8.97301114 14.58864350
Cu 0.01509269 11.00551825 0.14542311
Cu 17.99224012 12.72348929 1.85721844
Cu 1.80210421 10.92660352 1.75131661
Cu 1.92282209 12.62826082 18.01110620
Cu 0.13569025 10.67633747 3.49125664
Cu 18.01109364 12.68638488 5.60037520
Cu 1.98078181 10.87017256 5.57093030
Cu 1.75016287 12.38690965 3.65519620
Cu 0.31992324 10.91743730 7.38383593
Cu 0.01596492 12.70755980 9.08525708
Cu 2.10248899 10.87381640 9.36148571
Cu 1.88583474 12.60833159 7.19347359
Cu 0.11394678 10.70112458 10.99876048
Cu 0.19595617 12.65708517 12.32234266
Cu 1.85181198 10.69421855 12.64069209
Cu 1.94644765 12.62855235 10.77049853
Cu 0.10219745 10.87383776 14.49710402
Cu 0.23001723 12.59231758 16.36723093
Cu 1.82267776 10.67007860 16.28931550
Cu 1.80463831 12.56051053 14.59332390
Cu 17.99206779 14.65410456 0.12076405
Cu 0.30501774 16.32433402 2.11206116
Cu 1.97025427 14.25411259 2.00386029
Cu 1.75977535 16.30455960 0.04856634
Cu 17.84518354 14.42253303 3.53103916
Cu 17.92634725 16.17771603 5.32797217
Cu 1.86505594 14.41442187 5.26669085
Cu 1.85661248 16.21872575 3.65985645
Cu 17.99942885 14.48435758 7.16261991
Cu 0.01845412 16.31013181 8.79598283
Cu 1.83456304 14.46858092 9.20176839
Cu 1.86172028 16.11920888 6.92847149
Cu 0.00795440 14.52811588 10.93950158
Cu 18.02283608 16.40186857 12.56363213
Cu 1.86114244 14.70265192 12.54081642
Cu 1.64993054 16.33569047 10.52936903
Cu 0.17714271 14.54198960 14.02464019
Cu 17.84572887 16.31326211 16.43921696
Cu 1.84617610 14.52212301 16.15606995
Cu 1.89868263 16.36825903 14.29448367
Cu 3.60117075 0.08103645 0.00630701
Cu 3.74809731 2.15218456 1.63000225
Cu 5.26759415 0.19436014 1.60743258
Cu 5.33613864 2.08153121 17.93324234
Cu 3.50365322 18.03707922 3.49885953
Cu 3.55908822 1.52501742 5.32186697
Cu 5.28441490 18.05815752 5.22100044
Cu 5.47033443 1.69652865 3.62096071
Cu 3.65287706 18.05856002 7.36497136
Cu 3.77185446 1.96994720 8.66334266
Cu 5.33212392 0.04879194 9.15252833
Cu 5.49005428 1.69209662 6.99100842
Cu 3.57400464 0.17045500 10.54113044
Cu 3.60187488 1.90682682 12.76914123
Cu 5.49426002 0.09281833 12.47182900
Cu 5.39539937 1.83936865 10.75160907
Cu 3.65421386 0.02802280 14.29747760
Cu 3.81047393 1.89833529 16.28425829
Cu 5.45397404 0.03583125 16.52323225
Cu 5.39744235 1.69569123 14.42593964
Cu 3.68165438 3.78848494 17.99870917
Cu 3.65222685 5.33757828 2.06513249
Cu 5.49464365 3.74897295 2.07190546
Cu 5.31007157 5.51569252 0.17039810
Cu 3.69126727 3.41611574 3.79469474
Cu 3.71070265 5.56500257 5.61999055
Cu 5.69024471 3.58763975 5.19350025
Cu 5.40942339 5.59061705 3.82905531
Cu 3.71915779 3.53584182 7.05678792
Cu 3.80082026 5.36223190 8.70278876
Cu 5.59494486 3.40319678 8.84616882
Cu 5.52522073 5.58358768 7.15576034
Cu 3.56043068 3.69916510 10.56490272
Cu 3.63943878 5.15214621 12.43015076
Cu 5.40817793 3.69360315 12.75469311
Cu 5.50529526 5.24850133 10.78529300
Cu 3.64449116 3.62483751 14.63937352
Cu 3.43647922 5.42455165 16.22001192
Cu 5.49107847 3.75831804 16.29386342
Cu 5.46645011 5.54375171 14.31753152
Cu 3.37949291 7.13511405 0.32061760
Cu 3.47495692 8.88951234 1.91977894
Cu 5.15746419 7.15100252 1.99048684
Cu 5.42797317 8.69157205 0.25492896
Cu 3.54662569 7.15321512 3.70139275
Cu 3.71992131 9.11129595 5.45573915
Cu 5.48440479 7.45332501 5.57349018
Cu 5.29567720 8.91095057 3.72373625
Cu 3.60744922 7.23322368 7.26686103
Cu 3.53146220 8.90257562 9.00823944
Cu 5.44237669 7.14250806 9.10158272
Cu 5.43857566 9.16561054 7.52419722
Cu 3.49285383 7.16839153 10.65128359
Cu 3.39360696 8.98401433 13.02174119
Cu 5.28986301 7.22594593 12.60681779
Cu 5.29518306 8.79183695 10.90733919
Cu 3.40386524 7.14793294 14.68459395
Cu 3.55239419 8.89050337 16.48180595
Cu 5.21770978 7.08278437 16.40384698
Cu 5.62477852 8.76894289 14.48725333
Cu 3.70027254 10.55911103 0.28565021
Cu 3.69278925 12.41308403 1.80596491
Cu 5.76611736 10.70011734 1.97130242
Cu 5.32916185 12.39712134 17.98033448
Cu 3.90165378 11.00030000 3.58135496
Cu 3.74158404 12.72969436 5.39154106
Cu 5.33607515 10.75681234 5.52594718
Cu 5.53807110 12.66143132 3.56907568
Cu 3.65719351 10.66500303 7.41691679
Cu 3.67292482 12.57191178 8.96821998
Cu 5.41269969 10.76941232 9.28630418
Cu 5.46360938 12.71539798 7.49160243
Cu 3.80030477 10.74862046 11.04298972
Cu 3.60564116 12.68173518 12.48509192
Cu 5.42483881 10.59491271 12.87303088
Cu 5.39106924 12.59128872 10.70873564
Cu 3.65419138 10.80141968 14.68018135
Cu 3.59266141 12.72904817 16.31149742
Cu 5.44545665 10.63379491 16.33049565
Cu 5.23789789 12.60892501 14.48319529
Cu 3.64275955 14.42740194 0.14065196
Cu 3.62653715 16.39824104 1.49588928
Cu 5.40319210 14.46832955 1.74634741
Cu 5.48937558 16.41270859 0.06980202
Cu 3.78740604 14.54222721 3.57671333
Cu 3.85090166 16.28681714 5.34313078
Cu 5.48488863 14.57318182 5.22031352
Cu 5.21964114 16.47866024 3.35394975
Cu 3.69198755 14.52340814 7.05777516
Cu 3.53752507 16.26681531 9.03509751
Cu 5.47390370 14.58453105 9.18941975
Cu 5.39139074 16.19471113 7.31073220
Cu 3.65824131 14.50750995 10.89620140
Cu 3.39932193 16.59346030 12.56984190
Cu 5.27461241 14.63102650 12.68503106
Cu 5.34979824 16.34458892 10.75769813
Cu 3.43379487 14.43701463 14.36459607
Cu 3.56678919 16.34585423 16.35224142
Cu 5.00818528 14.57605829 16.34070567
Cu 5.37358189 16.14672794 14.64748814
Cu 7.45338977 0.21017142 17.93225537
Cu 7.16132854 1.77331925 1.75013223
Cu 9.36517909 0.00475546 1.72846042
Cu 9.11769986 1.90269633 0.09636747
Cu 7.41575623 0.10065931 3.53406720
Cu 7.33014122 1.50672872 5.44293075
Cu 9.06921169 17.80974124 5.24706434
Cu 9.05969976 1.87098478 3.54308274
Cu 6.97584398 17.95670977 7.34680827
Cu 7.43004743 1.71877932 8.78864896
Cu 9.26653768 17.84379849 9.00200407
Cu 9.11669164 1.81123687 7.08650741
Cu 7.20560096 0.03463246 10.62619746
Cu 7.08426675 1.77425474 12.53445379
Cu 9.24907585 0.33774313 12.51311098
Cu 9.18930401 1.72329272 10.64579301
Cu 7.24335515 0.24837556 14.33564046
Cu 7.00517074 1.98408981 16.26173817
Cu 9.22617126 0.31968664 16.25984503
Cu 9.36711627 2.01613834 14.65252811
Cu 7.20693347 3.69170693 0.09788496
Cu 6.90454588 5.58322134 1.98371210
Cu 8.96161401 3.52335489 1.81449461
Cu 8.88922094 5.33996375 0.40777987
Cu 7.37765202 3.84164869 3.60103311
Cu 7.39016209 5.52281259 5.28554413
Cu 9.04190120 3.62281226 5.35944379
Cu 9.02330549 5.46153398 3.29414590
Cu 7.14318250 3.64962193 7.06882387
Cu 7.46126286 5.53440298 9.00859715
Cu 8.98973200 3.67077557 8.96375943
Cu 8.92723053 5.37630343 7.11710094
Cu 7.31779682 3.32176928 10.74655278
Cu 7.06454431 5.29708783 12.51171947
Cu 8.94779505 3.57760834 12.76060215
Cu 8.83176952 5.22322798 10.84950683
Cu 7.26913633 3.68475786 14.43482221
Cu 7.05931820 5.42458390 16.53876888
Cu 8.76884702 3.77917448 16.41795320
Cu 8.88678617 5.17100062 14.47686345
Cu 7.17830401 7.06331859 0.14770926
Cu 7.25586061 8.96676260 2.00181932
Cu 9.22345923 7.30055190 1.95300014
Cu 8.93575105 8.77550492 0.05526889
Cu 7.24778512 7.37622506 3.68356858
Cu 7.26339463 9.05816092 5.55441158
Cu 8.90396244 7.22553673 5.39060773
Cu 9.11047239 9.32278433 3.74252231
Cu 7.09572069 7.42138525 7.42586037
Cu 7.42158913 8.94105520 9.20186671
Cu 9.19128996 7.25571333 8.95077435
Cu 9.03809270 9.35719547 7.35495028
Cu 7.32484820 7.15971584 10.62984545
Cu 7.09363839 8.83423204 12.59679866
Cu 9.06977763 7.20788308 12.60081620
Cu 9.09868399 9.30840784 11.07830291
Cu 7.42480590 7.11001035 14.39653241
Cu 7.10168214 8.85603676 16.52083389
Cu 8.81734440 7.25867248 16.30544732
Cu 9.20609840 8.74311396 14.26325966
Cu 7.01628209 10.81999241 0.08444104
Cu 7.12416962 12.68914183 1.94709696
Cu 8.88884017 10.73730904 1.74318653
Cu 8.67974782 12.51797056 18.04209569
Cu 7.32598708 10.92325524 3.68105556
Cu 7.05260265 12.67063220 5.45002655
Cu 8.92422612 11.07496610 5.47658829
Cu 8.77523542 12.91328530 3.81159908
Cu 7.21464669 11.03238496 7.42849764
Cu 7.25175614 12.88847410 9.46339854
Cu 8.88866213 11.03597404 9.16254212
Cu 8.94338117 12.71077123 7.38583949
Cu 7.25885307 10.81342436 10.88396283
Cu 7.04534168 12.76121492 12.46827116
Cu 8.92688741 10.89636593 12.83983195
Cu 9.15733320 12.72991276 10.99687497
Cu 7.19006317 10.53371016 14.69936042
Cu 6.92916285 12.66873014 16.14439114
Cu 8.76323812 10.66788438 16.38342533
Cu 8.97698624 12.83446163 14.30970137
Cu 6.99385223 14.62219122 17.47276893
Cu 7.07820253 16.58515966 1.79218920
Cu 8.95669831 14.29308731 1.78044482
Cu 9.03106488 16.56920382 17.98372952
Cu 7.06489738 14.74748886 3.67330282
Cu 7.04344769 16.30355422 5.31082132
Cu 8.83654436 14.54760605 5.45163211
Cu 8.93905579 16.26268586 3.37769550
Cu 7.04793884 14.48760040 7.21050180
Cu 7.46064337 16.26832627 8.94093535
Cu 9.05071474 14.58589250 9.21090212
Cu 9.00238942 16.15572290 7.35046361
Cu 7.00237474 14.58704345 10.97452028
Cu 7.07313143 16.35720724 12.66630355
Cu 8.78963447 14.60330577 12.49751676
Cu 9.06613409 16.35770234 10.96153128
Cu 6.96954118 14.37251741 14.45670298
Cu 7.19688487 16.50407956 16.03413670
Cu 9.01616237 14.60193153 16.21505899
Cu 8.90272268 16.41736256 14.32080586
Cu 11.03239899 0.06443730 17.99352809
Cu 11.20481715 1.76483752 1.72410320
Cu 12.70084398 17.94466571 1.92620359
Cu 12.97067280 1.94069661 17.98276987
Cu 10.95093689 17.84949403 3.75071312
Cu 10.84056032 1.87617061 5.32828951
Cu 12.59255940 18.04748217 5.61502293
Cu 12.60467110 2.01182239 3.71407355
Cu 10.77291443 0.08325926 7.06834205
Cu 10.75368981 1.84421224 8.72709755
Cu 12.66655096 0.08946369 8.88534032
Cu 12.55615321 1.94978313 7.22968206
Cu 11.09475231 18.01674588 10.74093595
Cu 10.87633354 1.83095297 12.53854965
Cu 12.85641588 0.07970145 12.79309755
Cu 12.44670618 1.75954937 10.99894414
Cu 10.82822965 0.01312002 14.32208505
Cu 10.89152649 1.99627432 16.32438411
Cu 12.50785285 0.06587179 16.16332080
Cu 12.54136406 1.91296937 14.51898344
Cu 11.02040133 3.66453915 18.06328966
Cu 11.02959811 5.26012318 1.86364663
Cu 12.84407948 3.65234912 1.41793567
Cu 12.65135295 5.62722925 17.91500174
Cu 10.83426813 3.59210121 3.62014595
Cu 11.02038201 5.36374598 5.32475517
Cu 12.55875246 3.72768234 5.33193845
Cu 12.83078761 5.27603554 3.57107112
Cu 10.80892826 3.64390395 7.17270315
Cu 10.65814405 5.35572394 8.89164134
Cu 12.71100510 3.65754074 8.96945456
Cu 12.53487957 5.64408127 7.33187342
Cu 10.66514660 3.45376429 10.61038815
Cu 10.99811739 5.43242625 12.60267404
Cu 12.73562593 3.49514517 12.60060358
Cu 12.41868398 5.25827369 10.70957312
Cu 10.97636383 3.61918371 14.36700951
Cu 10.65867668 5.29217567 16.20765460
Cu 12.71236625 3.64812014 16.12498078
Cu 12.71966101 5.36201195 14.59805967
Cu 10.72172074 6.96835702 18.00410336
Cu 10.76243576 9.04983436 1.82907471
Cu 12.58677315 7.33534598 1.66598509
Cu 12.67499289 9.13669021 17.92695392
Cu 10.86097520 7.29390190 3.63698293
Cu 10.75161649 9.01113178 5.47593873
Cu 12.62070721 7.18224806 5.28513637
Cu 12.63255276 8.97282516 3.52282905
Cu 10.86137576 7.18092266 6.97286354
Cu 10.86818193 8.89709747 8.96467775
Cu 12.53047398 7.15653889 9.29467079
Cu 12.55483325 9.00582383 7.12055411
Cu 10.86416686 7.32982020 11.05017444
Cu 11.01670261 9.10819848 12.64587216
Cu 12.70284556 7.20840084 12.88418714
Cu 12.80534318 8.90417192 11.12552097
Cu 10.88987740 7.27464230 14.53582367
Cu 10.58307311 8.93073859 16.39723578
Cu 12.45158935 7.43822630 16.36428494
Cu 12.71070475 9.11200969 14.62070189
Cu 10.71991478 10.84923426 0.07130142
Cu 10.69061754 12.56544658 1.70080492
Cu 12.36282355 10.89888069 2.10988367
Cu 12.58744601 12.40680617 17.99484682
Cu 10.67064989 10.90796312 3.79198727
Cu 10.80489895 12.93095282 5.47105186
Cu 12.74322380 10.86544692 5.27288699
Cu 12.61766918 12.65069192 3.75520601
Cu 10.73466819 11.09918333 7.25191634
Cu 10.74163536 12.75305189 9.12058900
Cu 12.59791991 11.10876057 9.03673511
Cu 12.68495190 12.73518080 7.29920898
Cu 10.96123317 11.02303218 11.02720567
Cu 11.04787941 12.77231198 12.86890687
Cu 12.72448157 10.75674527 12.85976309
Cu 12.66214504 12.45013835 11.04033052
Cu 10.77774245 10.77736366 14.55881053
Cu 10.64868008 12.36342325 16.34029871
Cu 12.95930525 10.95246226 16.18046079
Cu 12.76689225 12.64601716 14.53480214
Cu 10.64675489 14.20743779 18.03223411
Cu 11.07153045 16.24830072 1.74713833
Cu 12.84295121 14.28463451 1.85313759
Cu 12.58126906 16.17673621 0.11779649
Cu 10.69227516 14.37656768 3.56558991
Cu 10.83132920 16.15425568 5.41449305
Cu 12.71062352 14.32096641 5.54530539
Cu 12.64157474 16.04065244 3.86782633
Cu 10.80401933 14.55529706 7.33935241
Cu 10.88743958 16.24355662 9.12148809
Cu 12.56622339 14.42443189 9.18065866
Cu 12.56040355 16.21976804 7.31978707
Cu 11.15463487 14.35888837 10.92764437
Cu 11.12795085 16.35747396 12.39938365
Cu 12.69123002 14.51713117 12.79296833
Cu 12.95512883 16.30017551 10.83840578
Cu 10.62429189 14.49918159 14.54448862
Cu 10.65343991 16.37706238 16.28711015
Cu 12.26019938 14.23860373 16.10524950
Cu 12.45724466 16.08369869 14.44302418
Cu 14.19163102 0.10571348 17.91181481
Cu 14.52098231 1.62737502 1.92288531
Cu 16.37330727 17.80247182 1.87684859
Cu 16.29238341 1.77409808 0.13563955
Cu 14.44786011 17.71765492 3.62864224
Cu 14.53725938 1.61678521 5.33687173
Cu 16.14197441 17.82880883 5.42356791
Cu 16.28258557 1.57880465 3.68748521
Cu 14.52775936 18.06083360 7.29757908
Cu 14.33074758 1.85330107 9.05230466
Cu 16.27472150 0.00911410 9.07056044
Cu 16.29865750 1.74623781 7.21086072
Cu 14.56569754 0.12482672 10.96670484
Cu 14.64825725 1.69180224 12.71147726
Cu 16.32535518 18.01414785 12.76577676
Cu 16.31585672 1.93303417 10.71655947
Cu 14.68375745 0.03409048 14.57150952
Cu 14.61877670 1.74981735 16.11589425
Cu 16.40257146 18.07024454 16.25791565
Cu 16.72322619 2.00381295 14.40160355
Cu 14.71305222 3.62631631 0.06385182
Cu 14.44702676 5.61206302 1.77589807
Cu 16.26380542 3.53076212 1.97746800
Cu 16.31870755 5.59579347 0.04728200
Cu 14.53701692 3.61314647 3.66247961
Cu 14.38510364 5.73336260 5.45756235
Cu 16.27289717 3.31017973 5.34970101
Cu 16.23199461 5.39982128 3.91691951
Cu 14.49633596 3.81157001 6.98623514
Cu 14.42405411 5.45494843 8.79260203
Cu 16.14841620 3.64931478 8.60285937
Cu 16.20636120 5.43720010 7.02289018
Cu 14.41555591 3.71848603 10.61930839
Cu 14.34340501 5.44559871 12.75502083
Cu 16.34296879 3.45113232 12.40468496
Cu 16.22858328 5.34233722 10.67851633
Cu 14.59041967 3.55614225 14.38815427
Cu 14.58968591 5.51415074 16.17036814
Cu 16.40369878 3.39230416 16.30733599
Cu 16.30057163 5.20518656 14.11916295
Cu 14.50156885 7.28318975 18.06869299
Cu 14.48545682 9.12007546 1.72667340
Cu 16.24974232 7.26417907 1.89503821
Cu 16.34865004 9.25145046 18.02941219
Cu 14.36832657 7.10890337 3.54302228
Cu 14.31385217 9.02738641 5.11556895
Cu 16.20727644 7.47608105 5.50439088
Cu 16.25895099 9.28176580 3.66015549
Cu 14.48080663 7.41305037 7.20401739
Cu 14.17707767 9.12612184 9.02466700
Cu 16.29187980 7.33585751 9.02548952
Cu 16.54886234 9.14401783 7.30020660
Cu 14.46399617 6.99516848 10.68070339
Cu 14.75338747 9.04514459 12.78433644
Cu 16.18809648 7.16770119 12.80725033
Cu 16.33702775 8.90756218 10.89461492
Cu 14.44531869 7.19958643 14.46979082
Cu 14.59584239 8.91960045 16.27290069
Cu 16.34122733 7.08444267 16.07039979
Cu 16.52993818 8.95926962 14.69149521
Cu 14.56513371 11.01159918 17.93741860
Cu 14.40142918 12.50120632 1.62934198
Cu 16.40095533 10.90684323 1.90339265
Cu 16.20311123 12.89588933 18.03280158
Cu 14.48472110 10.92895974 3.59320468
Cu 14.69091086 12.68087299 5.39384748
Cu 16.56587696 10.86083018 5.56082567
Cu 16.37272378 12.53146297 3.60383699
Cu 14.28548217 10.83860885 7.44886168
Cu 14.23917861 12.80213502 9.22092438
Cu 16.37695280 10.89980711 9.12095632
Cu 15.87160086 12.67417484 7.47875686
Cu 14.40207577 10.88404135 10.98163244
Cu 14.53946111 12.68809146 12.76007955
Cu 16.38882979 10.74284374 12.88546942
Cu 16.15538414 12.47146004 11.04477043
Cu 14.64075627 11.01435182 14.41114347
Cu 14.57572531 12.93591040 16.14448991
Cu 16.33142724 11.00692380 16.23279533
Cu 16.36324385 12.79182285 14.40482833
Cu 14.14222559 14.53319001 17.94489014
Cu 14.61595691 16.10945897 1.78441145
Cu 16.01176080 14.31697962 1.73079439
Cu 15.98454066 16.32384870 18.02992107
Cu 14.55234376 14.53443882 3.90716809
Cu 14.34335747 16.30541069 5.66489156
Cu 16.11794761 14.43691688 5.43252220
Cu 16.23902704 16.25460302 3.70553123
Cu 14.28816241 14.52937026 7.33235422
Cu 14.35148201 16.24002682 9.05187049
Cu 16.29292885 14.26027984 9.24369708
Cu 16.14341928 16.29747936 7.33915088
Cu 14.53842037 14.60593288 10.87627047
Cu 14.46616534 16.30883292 12.90416612
Cu 16.32782249 14.49193077 12.63900418
Cu 16.35693280 16.21153896 10.64576624
Cu 14.29511606 14.70307981 14.59516309
Cu 14.25901311 16.34516194 16.33223500
Cu 16.30807376 14.53366520 16.00788220
Cu 16.26179222 16.15879077 14.44812333
