500
Final configuration Lattice="18.07500000 0 0  0 18.07500000 0  0 0 18.07500000" Properties=species:S:1:pos:R:3
Cu 0.08412388 17.90913453 0.01858747
Cu 0.03917336 1.72755387 1.90156756
Cu 1.96831767 17.93508653 2.12642368
Cu 1.64364529 1.71660279 0.21389316
Cu 17.97319120 17.83951442 3.63643065
Cu 0.08437780 1.91911854 5.51749469
Cu 1.76080103 0.07150386 5.30092189
Cu 1.75456125 1.60487895 3.73797819
Cu 0.09036851 0.14370742 7.14404053
Cu 0.08559078 1.72753460 8.92847390
Cu 1.49387008 17.96114710 9.08259457
Cu 1.92169527 1.94837796 7.07003722
Cu 17.95552709 0.22276008 11.05763605
Cu 0.17813803 1.80997619 12.83003806
Cu 1.93128205 17.91792425 12.66023807
Cu 1.71413501 1.70568530 10.89325151
Cu 0.04041623 17.93671801 14.34190665
Cu 0.21606702 1.77006407 16.31877679
Cu 1.87160329 0.08982593 16.17450230
Cu 1.92949485 1.71095329 14.50681118
Cu 18.03211091 3.49541496 0.05337446
Cu 17.96452268 5.07953709 1.93071021
Cu 1.89284034 3.67643348 2.03932358
Cu 1.87195784 5.10301581 0.26442537
Cu 17.97517763 3.39749794 3.61660598
Cu 17.61076519 5.37450344 5.27094677
Cu 1.66353532 3.85587408 5.47528898
Cu 1.74775022 5.38340156 3.87820490
Cu 17.79242390 3.74975811 7.16538025
Cu 17.82589977 5.40557437 8.81824768
Cu 1.53772837 3.74502580 9.02897809
Cu 1.86316020 5.49237636 7.24178693
Cu 18.05508195 3.51386933 10.96478960
Cu 0.08066556 5.33400488 12.58727965
Cu 1.96286906 3.41420825 12.50757293
Cu 1.66103187 5.46273896 10.81963324
Cu 18.02303595 3.38269207 14.54986756
Cu 0.19975046 5.19785217 16.58415511
Cu 2.04983437 3.54857589 16.14607195
Cu 1.78460912 5.28463537 14.31012870
Cu 0.13172888 6.95088788 0.33538553
Cu 18.01442921 8.94825037 2.05601666
Cu 1.94135176 7.10939454 2.03873669
Cu 1.76270679 9.04915717 0.46328247
Cu 0.01981647 6.92755819 3.60458768
Cu 17.92148520 9.22655469 5.26648620
Cu 1.68513069 7.28332736 5.41606521
Cu 1.97470448 9.22888793 3.64334483
Cu 0.03008643 7.14542217 7.01563209
Cu 17.80463250 9.08491687 9.13324632
Cu 1.70792989 7.40973939 8.94647719
Cu 1.59842052 9.03362370 7.14021091
Cu 17.71943215 7.38316975 10.68401721
Cu 17.99235135 9.20863520 12.65980859
Cu 1.88970138 7.13248203 12.62930267
Cu 1.56813195 9.20459832 10.96543069
Cu 18.05469632 7.00930969 14.53408504
Cu 0.09236502 9.13643354 16.51923721
Cu 1.74667693 7.27832367 16.60707232
Cu 1.88456598 9.04426397 14.48174399
Cu 0.05880499 10.70328420 0.11056630
Cu 17.99688332 12.57751809 1.79997052
Cu 1.83581608 10.92413441 1.85208734
Cu 1.87502702 12.80985135 18.05096627
Cu 0.15270025 11.08076327 3.50715899
Cu 0.16499767 12.77995411 5.49226605
Cu 2.03003486 10.80772729 5.46880682
Cu 1.83305384 12.77097818 3.72353668
Cu 17.81261873 10.94211333 7.31738938
Cu 17.86511630 12.72251549 9.09262616
Cu 1.70211358 10.65622562 8.94720144
Cu 1.90256207 12.49640508 7.28948675
Cu 18.00964113 10.93577049 11.07799909
Cu 0.14804863 13.05359698 12.55816235
Cu 1.81634856 11.00635466 12.80506775
Cu 1.60716229 12.66658322 10.83952304
Cu 0.04902705 10.61448547 14.45005462
Cu 0.19125689 12.49075156 16.29703073
Cu 1.75211153 10.73762018 16.27895221
Cu 1.79648672 12.88498000 14.42292997
Cu 0.14208120 14.66918689 0.03635260
Cu 17.88788225 16.21832896 1.89787896
Cu 1.94422291 14.53958960 1.95977520
Cu 2.01961072 16.27935344 0.13723622
Cu 17.83269699 14.28622378 3.67264337
Cu 17.96091055 16.17780989 5.39750404
Cu 2.25067716 14.38220941 5.52407138
Cu 1.71771588 16.17753871 3.75509980
Cu 17.96629560 14.51130798 7.18377400
Cu 17.89431634 16.27873148 8.84298481
Cu 1.77537208 14.34453843 8.70037007
Cu 1.70794835 16.31839954 7.09899157
Cu 18.05518353 14.46472379 10.50384953
Cu 18.01152844 16.39352335 12.36003029
Cu 1.85060572 14.82068306 12.47914879
Cu 1.82753253 16.31534989 10.66082908
Cu 0.03803260 14.44121923 14.47425447
Cu 0.13665171 16.22505986 16.23035604
Cu 1.89229938 14.56576026 16.32929977
Cu 1.94206356 16.35268478 14.41186852
Cu 3.37469916 0.09876527 0.27623216
Cu 3.54801516 1.93358012 2.01671110
Cu 5.29868775 0.15886104 1.81323476
Cu 5.27066978 1.93917359 0.08572635
Cu 3.80414026 18.05514477 3.69593347
Cu 3.68275431 1.75452747 5.68649655
Cu 5.60746382 0.11462210 5.48159987
Cu 5.43255978 1.87834847 3.88062410
Cu 3.57307471 0.02453794 7.17238802
Cu 3.49126464 1.54493123 8.93642085
Cu 5.46969533 0.17532722 9.12198379
Cu 5.19437325 1.91790721 7.35040531
Cu 3.66733435 18.05213761 10.67691919
Cu 3.65261243 1.57891972 12.78760900
Cu 5.47078576 0.08310561 12.61765086
Cu 5.32012202 1.86470831 10.57697912
Cu 3.98119681 0.01741095 14.74581149
Cu 3.76455445 1.66605129 16.22610002
Cu 5.79602767 17.91118113 16.36798287
Cu 5.50245672 1.81168643 14.41917503
Cu 3.58515327 3.60381539 0.04911515
Cu 3.67161750 5.45276699 2.08746630
Cu 5.43744259 3.49092657 1.99706346
Cu 5.60033068 5.35807328 0.46653158
Cu 3.63678581 3.68718820 3.75355145
Cu 3.64689293 5.40897046 5.31463514
Cu 5.44032355 3.69950577 5.52108966
Cu 5.48813846 5.44794240 3.77312165
Cu 3.48343331 3.57763518 7.66122354
Cu 3.31214520 5.53513698 9.16216056
Cu 5.43369183 3.38008309 8.97852581
Cu 5.00497266 5.38192816 7.30523522
Cu 3.57752261 3.53089187 10.66791092
Cu 3.68706294 5.37125842 12.58172117
Cu 5.15516984 3.35590699 12.61430915
Cu 5.36321871 5.30311013 10.82344049
Cu 3.62390456 3.56584390 14.64106560
Cu 3.49495489 5.52829990 16.25789779
Cu 5.46349343 3.80121779 16.14253078
Cu 5.20455276 5.47592433 14.39957396
Cu 3.52180025 6.91813637 0.11839562
Cu 3.70052460 9.13590054 1.90762246
Cu 5.45820586 7.32081479 1.82385563
Cu 5.47436251 8.78298526 0.05365397
Cu 3.71049479 7.33533073 3.69016564
Cu 3.76501710 8.88198102 5.52739865
Cu 5.62223629 7.25086784 5.61616889
Cu 5.36838618 9.30680650 3.66148163
Cu 3.37251545 7.32615434 7.10928792
Cu 3.54736287 8.91262874 9.31200509
Cu 5.13254293 7.14706635 9.04736173
Cu 5.74914037 9.02448616 7.35045334
Cu 3.53014376 7.22373093 10.83914270
Cu 3.62212740 8.95992526 12.64583891
Cu 5.19463235 7.23269722 12.60456004
Cu 5.40304854 9.10467590 10.97260007
Cu 3.54328416 7.12142711 14.44330548
Cu 3.31703511 9.03134805 16.37365587
Cu 5.38071202 7.08387198 16.34065684
Cu 5.31387453 9.07714343 14.75002337
Cu 3.68021073 11.00045017 0.01835491
Cu 3.59412917 12.96217367 1.66987633
Cu 5.26532815 10.86200249 1.57468470
Cu 5.53763837 12.71322723 17.94639973
Cu 3.75099512 10.95761932 3.46393485
Cu 3.72038570 12.64421254 5.67537059
Cu 5.26040596 10.81008043 5.55909873
Cu 5.45233669 12.79687276 3.73048980
Cu 3.47263277 10.79052578 7.36106204
Cu 3.51594336 12.57813533 9.13573787
Cu 5.42733522 10.86058997 9.10168663
Cu 5.46263201 12.64756606 7.43999359
Cu 3.66114788 10.82486166 10.96191434
Cu 3.51199877 12.89198492 12.65647981
Cu 5.44140143 10.57964522 12.65707729
Cu 5.49430912 12.71206022 10.86588501
Cu 3.59046641 10.96214448 14.51850802
Cu 3.46456376 12.57065589 16.07266460
Cu 5.22387091 11.02134860 16.32841038
Cu 5.39173853 12.85525477 14.48002273
Cu 3.84750032 14.46002449 18.00938317
Cu 3.78107919 16.29012711 1.77914998
Cu 5.49902229 14.47236298 1.70015721
Cu 5.55698109 16.37095018 0.29052800
Cu 3.72892612 14.54503481 3.47324188
Cu 3.75535162 16.10263090 5.26589244
Cu 5.61972496 14.52210465 5.56666387
Cu 5.52727444 16.27318494 3.51572474
Cu 3.90628521 14.58639829 7.12761156
Cu 3.62907053 16.45023787 8.86502206
Cu 5.51438538 14.41511626 9.26466735
Cu 5.43276204 16.54645599 7.05887149
Cu 3.37269778 14.42502339 10.56476507
Cu 3.88614569 16.40986874 12.62107004
Cu 5.59423816 14.61010704 12.60062431
Cu 5.51819394 16.23574090 10.71204265
Cu 3.51039390 14.54437139 14.54280300
Cu 4.01320531 16.21731887 16.52265281
Cu 5.44142220 14.21938973 16.22115614
Cu 5.50861491 16.16500241 14.54339833
Cu 7.37752833 17.95752335 0.14662756
Cu 7.20429312 1.89504642 1.89325489
Cu 9.21894483 17.90008105 1.83271482
Cu 8.98834772 1.63958657 0.21710052
Cu 7.16198986 0.07495553 3.43578600
Cu 7.26248488 1.97222538 5.31363518
Cu 9.19265000 18.06781296 5.38959084
Cu 9.23085090 1.66609177 3.54511145
Cu 7.50969573 0.27394012 7.13527444
Cu 7.29051366 1.87857918 9.05268478
Cu 9.30868061 0.10782749 9.10060452
Cu 9.09297835 2.00051111 7.18225273
Cu 7.22438198 18.05494634 10.81389466
Cu 7.29449151 1.86976757 12.83998236
Cu 9.04560630 0.03206192 12.55097517
Cu 9.19220542 1.96431015 10.80579713
Cu 7.25690741 17.98156253 14.35137366
Cu 7.36567888 1.71738800 16.20151280
Cu 8.99362532 18.01958649 16.25396874
Cu 9.26942977 1.74798248 14.34593970
Cu 7.66863293 3.48249039 17.97125310
Cu 7.28220204 5.72976705 2.20143336
Cu 9.22549600 3.85644919 1.95406986
Cu 8.86387268 5.59263744 0.34195577
Cu 7.49556057 3.51098118 3.40001456
Cu 7.30403772 5.46139490 5.35018601
Cu 9.18062064 3.58235836 5.17787125
Cu 9.31749713 5.49821112 3.45224394
Cu 7.32882301 3.56151096 7.25841506
Cu 6.94340674 5.54403105 9.08911518
Cu 8.92278026 3.86638724 8.96372512
Cu 9.05109018 5.24679207 7.02341320
Cu 7.15021187 3.55762643 10.87612938
Cu 7.20869860 5.37880721 12.43130885
Cu 9.05524131 3.54949129 12.64368881
Cu 8.87432112 5.40921426 10.82108310
Cu 7.14804871 3.84012990 14.27909207
Cu 7.42246956 5.41327256 16.22081672
Cu 8.88501892 3.57104695 16.00166382
Cu 8.97122825 5.48879285 14.23398911
Cu 7.40525285 7.23386306 17.94503487
Cu 7.01406679 9.19110948 1.81590163
Cu 9.06526686 7.44496911 1.80009448
Cu 8.85924591 9.13955288 17.90025450
Cu 7.10840394 7.51212278 3.65810254
Cu 7.29131393 9.31360736 5.35993017
Cu 9.20197600 7.19387576 5.26410483
Cu 9.14285541 9.12253309 3.71684653
Cu 7.30231667 6.98774605 7.34431096
Cu 7.34682799 8.72783642 9.22596507
Cu 9.12683896 7.18264015 8.99426686
Cu 9.04193239 8.68757943 7.03231755
Cu 6.93058271 7.18109444 10.87096910
Cu 7.27168242 9.15539642 12.79369494
Cu 8.92165078 7.30394344 12.58849110
Cu 9.10146810 8.88361675 10.81879206
Cu 7.04070970 7.00060334 14.50482027
Cu 7.32851790 8.89327824 16.00137040
Cu 9.04176093 7.32539123 16.49629218
Cu 9.28445084 8.96914884 14.70671247
Cu 6.92483877 10.64837161 17.86350158
Cu 7.11128989 12.29888176 1.68726084
Cu 8.95652131 10.56209372 1.80079887
Cu 9.11559939 12.50038390 17.91383098
Cu 7.09875894 10.89991560 3.77421061
Cu 7.24819977 12.67783625 5.63757455
Cu 9.12844841 10.79688305 5.52236066
Cu 8.91000547 12.54319706 3.60694806
Cu 7.38827380 10.71398992 7.15812176
Cu 7.28360987 12.75935967 8.89386117
Cu 9.11822199 10.74913375 9.21025683
Cu 9.07395957 12.52311481 7.38603106
Cu 7.37465947 10.68383580 10.62520467
Cu 7.18260969 12.83154758 12.59489855
Cu 9.04209123 10.72754813 12.74561670
Cu 9.22620040 12.72944183 10.83070170
Cu 6.85669402 10.99915232 14.48125029
Cu 7.42489627 12.87044638 16.26057205
Cu 8.92420105 11.01815914 16.22943938
Cu 8.74465101 12.51527158 14.32033946
Cu 7.26751321 14.33352116 17.95359352
Cu 7.19695087 15.94476558 1.71934024
Cu 8.92615883 14.33443133 1.70773652
Cu 9.01979226 16.14548824 0.07702786
Cu 7.39350839 14.35642935 3.54425319
Cu 7.32641378 16.16663531 5.30128794
Cu 8.81061086 14.32158483 5.51554872
Cu 9.02239082 16.09517768 3.64018001
Cu 7.15125854 14.58988996 7.20988468
Cu 7.45547837 16.30670821 9.03439552
Cu 9.10371868 14.43696717 8.94674898
Cu 9.00783971 16.13345745 7.13959781
Cu 7.27881695 14.41279218 10.95927342
Cu 7.29060689 16.28257575 12.62147282
Cu 9.16994301 14.66654544 12.62130490
Cu 9.14972366 16.29558798 10.84431946
Cu 7.20111158 14.38747984 14.41832651
Cu 7.82505208 15.99502007 16.23688989
Cu 9.30838418 14.38096927 16.08496976
Cu 9.11257469 16.31351645 14.20688184
Cu 10.67241604 0.04024394 17.99807219
Cu 10.81680860 1.90194278 1.71142536
Cu 12.31703683 17.87622182 1.70330334
Cu 12.58362291 1.61600477 0.05054023
Cu 10.85932202 17.97301622 3.67742734
Cu 10.85628893 1.80700417 5.24269883
Cu 12.62224598 17.81314578 5.59615769
Cu 12.44964545 1.50952343 3.65731654
Cu 10.80497024 17.87205342 7.17952191
Cu 10.77674779 2.04561095 8.81364188
Cu 12.67458953 0.22499892 9.05450147
Cu 12.68648536 1.64051597 7.17000347
Cu 10.89005945 0.01427218 10.87678804
Cu 11.16013455 2.07438071 12.67850696
Cu 12.90483228 17.96441003 12.64375997
Cu 12.89770884 1.93440718 10.90476610
Cu 11.00351099 0.06010562 14.17308603
Cu 10.90715981 1.70395718 16.15985830
Cu 12.73682276 17.77035578 16.00889997
Cu 12.65004784 1.51026615 14.60803223
Cu 10.31747899 3.57600059 18.01373283
Cu 11.18072331 5.64369133 2.00343286
Cu 12.76661547 3.59599818 2.00010579
Cu 12.46582674 5.45746983 18.05664509
Cu 10.91376154 3.51043028 3.44472938
Cu 10.97528101 5.54584392 5.31687308
Cu 12.73895697 3.50245850 5.56669733
Cu 12.77456954 5.34606687 3.88322834
Cu 10.94169240 3.56774467 7.13918444
Cu 10.73724098 5.38058570 8.79675633
Cu 12.85517591 3.67299902 8.86916866
Cu 12.96624833 5.56073289 7.25139063
Cu 10.79447189 3.58364694 10.73529773
Cu 10.76289016 5.30386794 12.57264168
Cu 12.92771412 3.70241879 12.99664597
Cu 12.65998811 5.48357251 11.10356336
Cu 10.86382575 3.97147303 14.44062309
Cu 10.65693544 5.45067788 16.40967577
Cu 12.45437645 3.47173019 16.25368515
Cu 12.73219936 5.41514488 14.70087765
Cu 10.76929809 7.17409217 0.22863382
Cu 11.20275562 8.97169802 1.84738612
Cu 12.87714793 7.44357912 1.60978958
Cu 12.82136374 9.18297789 17.95023151
Cu 11.09362711 7.31846112 3.62839529
Cu 10.97113599 8.98565774 5.54791317
Cu 12.65461493 7.37689040 5.61898429
Cu 12.85945767 8.89136717 3.50581794
Cu 10.75771681 7.00065908 7.20617492
Cu 10.92511061 8.94610463 8.96537869
Cu 12.70894160 7.05320724 9.16325839
Cu 12.76771435 9.17208185 7.21330022
Cu 10.83736505 7.06618338 10.88634070
Cu 10.94022949 8.77548003 12.71339459
Cu 12.68074208 6.96250522 12.93832369
Cu 12.57690826 9.05817431 10.92676195
Cu 10.62619776 7.11809234 14.61865308
Cu 10.87696180 9.02638520 16.29414200
Cu 12.59833491 7.16855023 16.43022665
Cu 12.61394339 8.86811518 14.49436984
Cu 11.02775252 10.91933388 17.92731718
Cu 10.66377976 12.36760833 1.86682927
Cu 12.44960611 10.82747262 1.97903218
Cu 12.65225820 12.87263441 17.99505575
Cu 10.96285105 10.88789412 3.66601592
Cu 10.65135343 12.72519081 5.56701545
Cu 12.63076995 10.88698074 5.35851036
Cu 12.50769296 12.85288155 3.85055546
Cu 10.81674315 10.88990542 7.29675808
Cu 10.93663789 12.85401563 9.12173763
Cu 12.59745686 10.76772073 9.03502089
Cu 12.55812625 12.66480535 7.23225025
Cu 11.06331540 10.60716625 11.36943973
Cu 10.83338149 12.63430678 12.63289974
Cu 12.75593998 10.66751071 13.04923434
Cu 12.76256393 12.58679572 10.91715300
Cu 10.69399484 10.88613781 14.40238062
Cu 10.98728496 12.58874752 16.13917259
Cu 12.69253738 10.90346767 15.90805005
Cu 12.65462191 12.58088550 14.23283179
Cu 10.86485340 14.41048814 18.01802343
Cu 10.83216253 15.95306120 1.70238396
Cu 12.61047997 14.51784645 1.73628219
Cu 12.32795565 16.30428614 18.03081099
Cu 10.84292234 14.38412680 3.42147605
Cu 10.88011489 16.27593704 5.40759587
Cu 12.62226528 14.55477276 5.37054668
Cu 12.65052019 16.31096466 3.50480239
Cu 10.83579401 14.46017809 7.11464493
Cu 10.93802210 16.31701145 9.01600791
Cu 12.64144782 14.55526934 8.92760432
Cu 12.74119155 16.12387757 7.27520180
Cu 10.92627465 14.52490623 10.80437092
Cu 10.94571977 16.12497288 12.36448263
Cu 12.71197156 14.46944098 12.55655420
Cu 12.87611971 16.19968463 10.65760100
Cu 10.82818191 14.41077980 14.19574682
Cu 10.70654310 16.41959874 16.19378079
Cu 12.62018884 14.37596303 16.14763883
Cu 12.69564075 15.97274653 14.38675237
Cu 14.25014260 0.02481133 0.02322944
Cu 14.30757855 1.45076172 1.78483139
Cu 16.21716623 17.94961860 1.87268009
Cu 16.33620716 1.55682801 0.19502829
Cu 14.34082675 0.00466357 3.73255666
Cu 14.45978364 1.71930210 5.43456174
Cu 16.16910108 18.07033643 5.32196295
Cu 16.32580738 1.58672414 3.69358588
Cu 14.35323477 0.10046121 7.22244353
Cu 14.51593725 1.99111228 9.22718484
Cu 16.42927713 0.05229141 8.95589957
Cu 16.30850985 1.95281110 7.22749497
Cu 14.45915520 0.11818974 10.77673618
Cu 14.55091457 1.94523432 12.86137241
Cu 16.30770928 18.00260688 12.83502777
Cu 16.30408145 1.89065422 11.15955362
Cu 14.72829135 0.07902358 14.63157311
Cu 14.42747106 1.97184358 16.39442390
Cu 16.49488013 0.11619011 16.29406079
Cu 16.26287521 1.79360766 14.58676637
Cu 14.20670404 3.88894160 0.07072557
Cu 14.07687470 5.40263054 1.88492865
Cu 15.79331412 3.33926961 1.81065271
Cu 16.16287110 5.20450141 0.40500065
Cu 14.44842315 3.44844994 3.74982675
Cu 14.62110884 5.47657421 5.18000286
Cu 16.28741119 3.53606450 5.36198602
Cu 16.22597055 5.46258644 3.45839235
Cu 14.67225875 3.68508723 7.24663575
Cu 14.52472705 5.45668702 9.05676536
Cu 16.29055560 3.53770376 9.20333629
Cu 15.92076727 5.54046073 7.17304391
Cu 14.59809709 3.61350162 11.14057099
Cu 14.65257389 5.45709156 12.92600240
Cu 16.39325258 3.65234932 12.83034862
Cu 16.00823762 5.50073534 10.97626373
Cu 14.61225183 3.67878769 14.66161099
Cu 14.82162600 5.48134369 16.46169362
Cu 16.34786602 3.75355807 16.50689887
Cu 16.44441166 5.29040459 14.47948583
Cu 14.59508425 7.17611104 0.08955159
Cu 14.33813665 9.32456620 1.70780832
Cu 16.36407588 7.28676726 1.74306103
Cu 16.52557015 9.15556210 0.18650013
Cu 14.57974862 7.29229810 3.75805009
Cu 14.40532270 9.26873399 5.51457492
Cu 16.27471557 7.36788052 5.34334561
Cu 16.07288121 8.98558031 3.60298783
Cu 14.60746664 7.54652586 7.25613239
Cu 14.28738305 9.07246741 9.31865346
Cu 16.24442530 7.10008369 8.81753445
Cu 16.17927309 9.27558648 7.17745395
Cu 14.41024591 7.19157503 10.96623945
Cu 14.75471858 9.11056640 12.99070093
Cu 16.46510847 7.12614622 12.55909514
Cu 16.11901645 9.07817480 10.94408266
Cu 14.80575751 7.08028537 14.51057867
Cu 14.72294405 9.06535040 16.48895765
Cu 16.44811799 7.26983821 16.64707656
Cu 16.55933800 8.90395293 14.70834708
Cu 14.51198220 10.94172839 17.97171629
Cu 14.40766296 12.51086363 1.68407912
Cu 16.33877706 10.84935522 1.75575067
Cu 16.46130848 12.89716319 0.04868305
Cu 14.42439398 10.85648781 3.54872102
Cu 14.30081138 12.50203707 5.37686636
Cu 16.28157490 10.99885510 5.39835856
Cu 16.24076332 12.71808589 3.55863621
Cu 14.34469615 10.88698852 7.29290848
Cu 14.16003094 12.68585150 9.19391020
Cu 16.11721573 10.79442906 9.35778574
Cu 16.12937969 12.81524153 7.15151027
Cu 14.42748808 10.90352113 10.92740414
Cu 14.58399914 12.78370091 12.58813244
Cu 16.15587695 10.90296242 12.56563228
Cu 16.17327447 12.81105445 10.88451163
Cu 14.65385158 11.01734905 14.55011322
Cu 14.56582849 12.70605597 16.32847864
Cu 16.46980071 10.82538884 16.53325027
Cu 16.69663001 12.59117759 14.19983276
Cu 14.63153557 14.57499418 0.31465993
Cu 14.37867877 16.50781934 1.89005091
Cu 16.25554753 14.50434417 1.91739400
Cu 16.19762873 16.23324848 17.79723996
Cu 14.38869020 14.38529974 3.65896892
Cu 14.44632193 16.28228197 5.27015167
Cu 16.20300401 14.39915502 5.46560138
Cu 16.17227606 16.21865877 3.63676647
Cu 14.43169381 14.50551480 7.15361233
Cu 14.61561676 16.50005887 8.85090984
Cu 15.99319612 14.24769630 9.07268636
Cu 16.24349517 16.36763645 6.85629178
Cu 14.22207038 14.26873836 10.82018427
Cu 14.56636340 16.11520729 12.88358726
Cu 16.41861156 14.68216217 12.77334558
Cu 16.22360912 16.28867628 10.68169449
Cu 14.72706548 14.36394758 14.54214068
Cu 14.47101518 16.11844876 16.22507736
Cu 16.32940211 14.45720588 16.31565753
Cu 16.29710949 16.41986624 14.75871630
