500
Final configuration Lattice="18.07500000 0 0  0 18.07500000 0  0 0 18.07500000" Properties=species:S:1:pos:R:3
Cu 0.78261557 1.63895019 0.53540476
Cu 14.71433562 10.76017017 1.90933450
Cu 7.85763406 16.82886032 2.29862873
Cu 17.86652121 14.69727167 8.37857733
Cu 14.32459122 3.28725000 4.17533190
Cu 9.12074197 8.99701463 0.06732576
Cu 16.45940566 8.80537933 14.15189534
Cu 1.24324422 12.34281177 17.36898261
Cu 12.70817127 9.68713939 6.65005005
Cu 11.78899907 10.14554442 10.43624066
Cu 5.80179575 5.38970293 7.50297909
Cu 5.76685393 2.86006958 5.86551833
Cu 2.32447588 10.14544453 10.70206378
Cu 1.95313564 4.52050975 14.74785541
Cu 5.30688547 10.48031198 11.84541000
Cu 13.69040452 5.75283197 15.30232172
Cu 1.65397343 1.40753898 16.21494297
Cu 14.56584987 17.93548096 12.67724845
Cu 17.08786761 1.64753039 7.02075803
Cu 6.54173532 15.45855779 6.07974151
Cu 16.14644140 1.26987546 1.03529446
Cu 1.55371029 17.50102887 2.28246414
Cu 12.50782531 4.00316310 15.51399196
Cu 4.62091223 16.32049318 1.06937218
Cu 10.16945439 15.98429830 14.95612062
Cu 11.29229737 11.57550043 7.32384298
Cu 15.61440286 4.07368917 10.94054084
Cu 1.09586195 15.19387741 16.85735505
Cu 13.33812341 5.62760637 17.65636998
Cu 3.39031145 6.96121368 10.29805256
Cu 0.54865982 1.84710574 13.25345145
Cu 7.24676101 5.37538722 2.35857055
Cu 17.12169642 10.99155328 7.53945688
Cu 0.63463973 5.75162830 0.22710702
Cu 17.08067518 8.38574362 16.37601869
Cu 16.86419839 4.45451605 8.19566922
Cu 3.70223099 0.62312049 15.10808147
Cu 0.81809545 12.54026830 11.43072513
Cu 18.00093532 3.54052655 0.79846338
Cu 9.77034650 11.31261271 8.99261964
Cu 12.76878204 15.45147069 7.57270818
Cu 3.19854849 8.79238478 14.33394139
Cu 7.05362935 4.69697825 17.95475430
Cu 12.61395078 3.45019855 0.02417111
Cu 4.17221329 17.56316784 17.11958597
Cu 8.43631178 9.82387433 7.93984690
Cu 10.13651067 10.65105216 11.92405379
Cu 4.87186047 16.65808905 4.47327991
Cu 16.75565966 16.37636388 4.36033315
Cu 8.71890527 3.01961448 10.99903705
Cu 12.28862083 4.61443522 3.49725452
Cu 0.32598011 13.28562430 15.30605903
Cu 5.46708551 17.62712579 10.24864002
Cu 6.28335092 13.21163092 15.01462867
Cu 16.57742531 14.74670412 6.79195474
Cu 10.92243107 2.38702332 11.58392191
Cu 13.73587326 11.76171271 12.30424215
Cu 10.51444779 4.72150765 14.97642317
Cu 1.99693577 4.65047094 9.89917400
Cu 8.98724951 11.24581139 4.29729543
Cu 16.34711723 12.66472214 3.38837024
Cu 16.64075780 11.02306891 11.13656196
Cu 1.51681351 8.46625811 16.58785944
Cu 2.33320557 16.08151873 0.54542230
Cu 3.20132333 0.87453527 12.71936681
Cu 2.48528470 16.52895068 13.45693241
Cu 7.30211947 17.90539333 4.60670566
Cu 10.00579379 4.69802654 5.54656662
Cu 0.24544989 5.77386926 5.06146594
Cu 9.16880084 12.19196423 13.34124902
Cu 9.28396213 13.59363915 9.07062030
Cu 2.92702638 10.45080648 16.28942081
Cu 14.93337325 17.20544913 15.18898513
Cu 15.40114430 15.55604571 8.69890188
Cu 13.34294542 8.78360165 1.25324871
Cu 11.48068177 17.81013315 8.33821493
Cu 0.09707925 9.93340865 9.81750366
Cu 13.98863007 6.33539601 3.65070260
Cu 16.33884561 10.48415193 3.81317365
Cu 5.04944417 7.83100314 2.88657449
Cu 16.69463083 15.88681499 0.08772396
Cu 14.86810867 16.73111769 0.87796503
Cu 0.38092123 3.48424651 6.33139211
Cu 17.42837131 0.70467908 17.02940393
Cu 0.76109980 17.22636409 12.08949454
Cu 4.40096717 7.95608700 16.52527041
Cu 17.93559313 11.86065316 13.72991707
Cu 7.93800148 3.25134451 2.89340668
Cu 14.71146578 9.82580262 5.54445879
Cu 2.34329811 13.75810035 0.59647371
Cu 3.59778769 14.73182546 11.73247488
Cu 3.87756040 17.70279038 8.76210054
Cu 11.21860539 14.13804824 6.21571971
Cu 11.17602814 4.54029982 1.62414908
Cu 16.60457782 12.94385888 12.43522690
Cu 3.80668147 11.05260270 6.38919339
Cu 12.44283768 10.88233257 1.75380031
Cu 11.02767408 0.41402902 12.65225046
Cu 13.04655461 15.62798892 4.89667709
Cu 2.01332929 17.33864618 6.78448952
Cu 2.24345674 4.81863423 3.97258236
Cu 8.05083951 1.58825678 13.06443222
Cu 2.37870193 16.72032575 15.68614882
Cu 0.46654493 17.37244728 0.39302946
Cu 1.50717693 14.61302040 10.67755878
Cu 17.92168521 2.12846659 2.40709042
Cu 3.51311570 0.69612865 2.52870722
Cu 16.82074767 6.92389701 0.86751902
Cu 14.52397457 8.95399135 15.29772095
Cu 15.46618383 0.22106604 7.86937541
Cu 16.35137922 2.83497879 17.04751702
Cu 9.47293495 5.23162035 10.31838267
Cu 4.82771486 14.33569685 5.17307754
Cu 5.32650465 5.93783731 16.76828651
Cu 0.17872896 10.34206492 17.51984820
Cu 4.14821857 4.67383773 13.59408337
Cu 7.86201265 1.45715504 1.45468933
Cu 0.68577129 2.56294682 9.63408646
Cu 8.13985518 16.02715769 15.96605032
Cu 8.58723484 15.57449174 0.29047523
Cu 6.77343430 8.69535820 17.08082928
Cu 5.28685969 2.09477893 13.80690563
Cu 7.36219393 12.18320797 8.20743597
Cu 9.20642215 8.38350936 15.76696256
Cu 5.77578249 7.48036678 15.05769320
Cu 5.30240157 6.68899278 5.23387501
Cu 9.87020158 1.16316946 9.20041787
Cu 14.34642830 4.24407911 8.42768223
Cu 9.35157760 5.27672742 7.69307817
Cu 13.87531792 2.24673882 14.05318496
Cu 5.43226742 10.23232143 5.10487736
Cu 6.70929833 8.58243676 11.08700002
Cu 4.84254972 2.81180173 7.78429699
Cu 7.09907321 11.21355319 15.95422572
Cu 2.42964455 5.13653678 17.06603086
Cu 16.55090013 10.69962571 15.42639567
Cu 13.71525619 2.24810554 7.39413196
Cu 10.42417184 3.16605304 3.37818135
Cu 12.18752213 15.06778313 14.74919614
Cu 4.02309610 10.76999019 13.79716702
Cu 11.52847012 6.51140791 16.08371640
Cu 7.88599899 6.59125995 16.24365861
Cu 0.88100080 10.98214947 15.53378021
Cu 11.99735577 11.89408577 17.10549876
Cu 14.57092430 7.76959666 5.56637999
Cu 7.34116080 10.51808390 6.00248430
Cu 6.04010754 3.36359413 1.78910849
Cu 0.21142253 0.58174358 4.15562307
Cu 4.32260213 11.27035406 8.52253649
Cu 7.03935328 17.25650373 12.05422941
Cu 4.56632519 8.14105742 12.22450893
Cu 0.40472338 6.45288390 15.97732050
Cu 1.85194751 13.70960775 8.70274729
Cu 0.27155519 12.24389289 1.55462687
Cu 10.12122036 6.89203532 4.67614028
Cu 2.57004700 10.00711385 1.43095346
Cu 6.65887946 8.37017216 4.95176935
Cu 6.00410336 5.41354462 14.18336623
Cu 2.19433706 8.32606235 12.16707424
Cu 16.95061629 13.13950433 17.12893461
Cu 3.67125080 13.97170691 3.24766738
Cu 8.56756501 11.68731885 2.09525771
Cu 15.82401629 14.80638630 13.46105629
Cu 10.60373712 14.97408145 17.01006504
Cu 7.06021984 10.39369103 3.56566320
Cu 3.39510028 11.90226167 11.92157145
Cu 2.81039346 7.27592149 0.02997987
Cu 10.69876902 1.72639877 16.98782884
Cu 8.75320207 0.94774060 7.32391539
Cu 6.68675793 3.55671279 12.31596173
Cu 2.13269972 13.88069151 4.78963484
Cu 8.54758493 7.05277597 11.28735480
Cu 1.84233366 10.85838887 13.38456476
Cu 5.50648707 6.00619028 12.05381708
Cu 7.66881068 14.91111274 13.79641134
Cu 5.95956425 17.91086312 2.89956136
Cu 9.20749425 17.84989673 0.47015136
Cu 1.98330767 11.29148678 7.93752631
Cu 1.50303079 0.21212891 14.31586927
Cu 7.49894669 7.16740914 0.41531146
Cu 14.35366235 11.47382962 7.39357648
Cu 2.77185279 15.47131005 7.59868978
Cu 18.00380867 14.94299930 12.30844112
Cu 17.06214760 5.01614336 17.05931437
Cu 9.23507676 7.94189049 6.80809363
Cu 2.16304039 14.81112971 14.65097944
Cu 6.25485552 12.20372009 10.38586261
Cu 4.83599747 9.28478603 9.78802311
Cu 3.11632853 16.09427858 5.61440135
Cu 12.36520195 16.10839315 9.71262865
Cu 1.71769512 13.06021553 13.40761955
Cu 10.16078321 10.18400060 6.19563825
Cu 1.85701310 1.03621908 8.26095870
Cu 6.21461753 16.22675410 8.75671787
Cu 17.22329845 17.57542317 15.07187322
Cu 3.98163492 3.59003439 11.24779352
Cu 8.87359964 13.67216117 15.34153098
Cu 7.04360881 1.31638067 14.98692741
Cu 7.99687743 17.56826738 14.08720507
Cu 5.53704015 1.03634482 8.64670532
Cu 7.57625989 5.29125889 9.22951366
Cu 8.76654824 4.56075433 16.59988336
Cu 6.22735259 15.25829940 0.31865770
Cu 13.32119506 7.93842997 17.00705710
Cu 6.59659904 14.93750156 2.99007923
Cu 15.90360567 8.84978307 7.42402486
Cu 4.06569194 5.28442923 8.66445207
Cu 4.07800468 2.64755992 3.28124203
Cu 9.36334531 17.11118346 6.60566537
Cu 1.82854778 0.02584795 10.33200733
Cu 3.92874786 14.69027264 17.23408456
Cu 14.50501666 2.02230592 10.19518201
Cu 14.88387287 8.27123403 9.79318850
Cu 2.60228636 4.33079454 1.17833001
Cu 4.84913393 1.79620451 17.02065033
Cu 0.24434126 14.44995389 0.56616932
Cu 13.80663010 8.86594227 3.63041868
Cu 17.86126766 10.10704348 1.97263867
Cu 14.23627924 4.32430840 2.32343184
Cu 2.13772461 6.72619864 2.07781160
Cu 2.60551218 0.39549628 0.38119922
Cu 3.30225132 9.21898562 3.74162818
Cu 16.11375834 11.22560683 17.94242164
Cu 10.59510541 9.09408662 3.12438914
Cu 9.40299883 5.00816709 3.46630079
Cu 1.96535373 7.76104660 5.25846909
Cu 7.79317276 2.73284876 8.88553606
Cu 3.48747187 6.57728037 3.96698218
Cu 17.99768025 4.81549958 10.49693744
Cu 8.59229860 10.34628240 14.43720990
Cu 8.98182108 0.14694648 11.30638347
Cu 8.81341947 9.12946072 4.75827768
Cu 3.57273724 17.04911000 11.51452142
Cu 16.02084310 6.07953811 11.41024690
Cu 5.22999346 9.99747590 15.39484024
Cu 12.29263348 17.08505572 13.74098862
Cu 0.15029681 15.65545513 14.54073742
Cu 15.50098525 0.71856718 5.57975029
Cu 8.53539213 9.45225808 2.23084642
Cu 2.87446764 9.23862106 8.45455527
Cu 4.85531181 4.27315797 4.54288418
Cu 12.52681631 6.12703783 13.47065158
Cu 10.18672354 0.31488766 14.77021484
Cu 13.70377040 8.03634522 7.58534757
Cu 11.89251570 3.05079646 5.24522048
Cu 7.86618682 10.86663474 0.11531882
Cu 4.96104433 9.96446107 17.98294414
Cu 3.36533427 11.65203021 0.27767608
Cu 0.52922050 8.91281260 7.15545525
Cu 6.73752687 10.31469985 9.47224894
Cu 14.03474759 13.96328013 9.30559029
Cu 11.97855242 3.86230407 7.58679119
Cu 1.27161939 7.99231719 9.24418337
Cu 4.00142912 15.46504730 9.42782374
Cu 2.33517160 6.98437958 7.29521718
Cu 9.70894891 7.10640185 17.68489935
Cu 0.73577799 8.74002921 3.80020208
Cu 15.35315331 10.89879569 13.62758647
Cu 6.45533272 3.87462517 15.72140611
Cu 17.92827803 4.70929300 14.86406893
Cu 6.22902209 12.83901241 3.19263944
Cu 3.21723051 16.08497664 2.82747585
Cu 17.42778373 17.44464119 6.19922629
Cu 8.02870025 9.91766832 12.21140423
Cu 1.14479212 3.53182333 17.08239455
Cu 6.90019821 13.43064630 17.07625313
Cu 11.72688270 12.14947552 11.36234707
Cu 8.43950782 13.40228313 3.67919125
Cu 7.37930113 13.58345442 1.41645492
Cu 15.07127209 16.41052124 6.11050545
Cu 6.37037129 11.63222507 13.44133803
Cu 14.86899778 12.23066067 10.59647744
Cu 1.51978038 6.72769336 13.90315554
Cu 17.18522241 16.37073111 10.30539598
Cu 15.32346400 1.13710481 15.22246161
Cu 5.56068953 15.48440473 12.83429420
Cu 10.94568539 11.17917253 14.60332544
Cu 6.40136388 9.03762471 1.36232098
Cu 11.11177769 9.67637684 16.52248321
Cu 16.37215700 8.16044159 2.60519322
Cu 5.78877559 15.30191075 16.19562813
Cu 4.74912729 0.98211311 4.91861279
Cu 5.66652642 6.91827006 9.71031270
Cu 7.07168074 4.59172684 4.57435513
Cu 17.24495020 7.71836938 10.02803077
Cu 4.37676790 13.63959936 1.12807359
Cu 6.67073051 17.63011935 0.50188991
Cu 17.49526441 14.41597733 4.70354593
Cu 9.02898218 9.64280568 10.12690295
Cu 8.21645641 5.60139446 14.30643462
Cu 13.69993570 18.05582485 9.62059186
Cu 5.92801617 11.94091000 0.60228690
Cu 6.23804923 9.21423963 13.45468556
Cu 9.44539491 13.20211028 17.90805539
Cu 10.35923314 14.29677956 11.13824589
Cu 2.74033560 2.56945341 14.08057487
Cu 11.24499612 2.28897990 14.20740182
Cu 5.23464894 1.26782880 1.14078300
Cu 10.65101488 12.24197658 2.87211384
Cu 11.70697901 13.18718457 0.72994729
Cu 13.91247223 5.45105035 6.75834074
Cu 17.25484621 6.59320421 13.19832972
Cu 16.67624045 1.33090819 13.58749000
Cu 8.55458655 0.40182155 16.37875860
Cu 18.03565359 1.04456196 11.31971012
Cu 4.66716598 17.02906690 6.79008078
Cu 5.76077632 14.84539831 10.50527084
Cu 12.94048655 13.25300229 7.36749787
Cu 11.51655183 16.96429869 5.80153220
Cu 10.17675088 6.63740070 12.99954239
Cu 5.76738006 3.85156958 9.74577399
Cu 1.39002424 16.33547574 9.27730896
Cu 10.62811439 3.37729672 9.52103027
Cu 9.25550900 3.16246077 18.06467311
Cu 10.33728655 1.32216763 5.26022584
Cu 17.82209088 17.56390736 8.44207560
Cu 3.05283538 2.83292439 5.51705473
Cu 4.24371284 15.86613477 14.64927021
Cu 12.94503636 16.43362478 16.62058735
Cu 1.40017969 2.34018900 4.08581005
Cu 13.63560400 0.37101629 1.70341527
Cu 16.19970158 3.30882190 2.45330323
Cu 1.24465854 1.20529429 6.04770207
Cu 2.01490530 2.66700615 11.48543515
Cu 16.96010550 6.87584772 7.70139315
Cu 0.29030983 9.85345240 11.99715458
Cu 0.26569928 10.04070748 5.54471163
Cu 8.96275636 1.38216995 3.63481297
Cu 15.30850779 6.13247696 9.46135338
Cu 11.18119972 17.51494938 1.10127491
Cu 17.10986420 7.88569329 5.61590104
Cu 8.49739882 11.98744806 11.01563615
Cu 10.00092306 1.81042795 1.60812517
Cu 4.68896700 4.55294903 0.28308678
Cu 14.47085266 14.83772148 15.79187584
Cu 15.79980860 6.36034040 14.74251417
Cu 12.44135784 17.32228267 11.34011948
Cu 5.31022611 1.51425103 11.30744729
Cu 13.40923171 0.90913844 4.89690542
Cu 12.59724878 0.91099724 15.47000022
Cu 14.96183961 4.62637036 16.68379365
Cu 12.56350336 8.11441026 14.89290642
Cu 11.40463226 7.02385473 6.97486708
Cu 7.20589494 7.69041738 3.09828818
Cu 16.18880605 8.53287677 11.95759501
Cu 14.78754822 5.15553357 13.25501010
Cu 15.60668030 9.06422467 0.38701376
Cu 14.27500695 6.54768403 1.47251237
Cu 13.33723241 0.15975088 7.04723803
Cu 16.33829670 5.91335747 3.43846549
Cu 10.61073722 12.38618706 5.16105231
Cu 9.53732646 3.00642521 7.40034625
Cu 11.35946165 5.63326080 11.39493470
Cu 9.48076168 3.77523084 13.19775033
Cu 0.45038157 12.81302333 7.12081721
Cu 10.39711879 7.76020941 10.35699439
Cu 17.80434436 2.33156038 15.34805849
Cu 12.46816005 3.87503203 12.96536338
Cu 2.39702251 2.38604335 2.01134485
Cu 7.38419343 0.78402630 9.86589319
Cu 12.67272223 3.78048579 10.52011104
Cu 1.27733758 13.90520089 2.70844963
Cu 8.15379469 7.55298154 8.94946244
Cu 6.11923397 17.85339051 16.26374869
Cu 7.91525821 6.55178899 5.31306790
Cu 4.45157130 5.11473676 2.55924942
Cu 9.14107406 5.22291263 1.21676018
Cu 12.40441221 13.00985007 4.29756159
Cu 9.63744609 16.35979760 12.63635163
Cu 12.66624666 8.11025881 10.26482525
Cu 14.68483291 16.17459917 11.44805994
Cu 12.13182122 5.65795710 5.31563802
Cu 5.54252974 12.45386139 6.49489478
Cu 3.52069362 2.01678020 9.59387860
Cu 17.97275478 12.65162989 9.37058807
Cu 3.01706253 12.96862795 15.62656630
Cu 8.87464793 14.43774854 6.71366937
Cu 13.25771475 10.87353342 15.03726943
Cu 16.79777856 12.44115352 5.79576743
Cu 13.22013260 13.33127445 14.31349451
Cu 10.15977115 8.89943955 13.64388502
Cu 8.85444845 11.92631766 6.70955175
Cu 12.35636213 10.82856708 4.31104116
Cu 9.31170497 11.49842181 16.31699748
Cu 16.17250924 14.21857008 1.75148451
Cu 3.54139823 6.37538652 14.96767560
Cu 5.40045229 17.70270646 13.88991434
Cu 10.94497659 13.24653034 15.12632730
Cu 13.94724377 13.94864096 11.70487957
Cu 11.25565280 13.93382042 9.02906148
Cu 7.42540181 14.42561749 8.37928460
Cu 10.91719463 17.62059091 16.67229788
Cu 10.47374421 14.70414785 4.01622690
Cu 13.88132093 15.71828964 13.68889479
Cu 12.22847653 8.04569862 12.34180019
Cu 12.23034258 7.09491507 2.82670589
Cu 13.73302921 13.85045086 1.89857427
Cu 15.58339402 13.23822976 8.10936110
Cu 8.08149738 15.91008398 4.63103311
Cu 8.11298739 15.88537945 10.48144898
Cu 17.45730925 3.67732975 12.89487802
Cu 10.43153545 16.97368632 9.95290081
Cu 15.03602302 1.12706086 3.38178669
Cu 0.77834007 8.33994895 0.72050105
Cu 14.17040751 16.47026795 2.93741007
Cu 3.66113761 0.96895971 7.00630474
Cu 12.07159255 16.21487791 3.04443925
Cu 13.20053554 1.45214938 11.84539010
Cu 4.55926225 12.30015269 4.38353443
Cu 3.17998568 5.32537734 6.14546344
Cu 17.01132478 0.07744163 2.69546938
Cu 11.15355125 8.89470111 0.88969440
Cu 12.09013820 2.32993592 2.44187847
Cu 7.19055038 1.92687055 17.22132398
Cu 8.17615578 17.29803737 8.76808121
Cu 11.79742230 6.71541300 0.59492129
Cu 14.44373440 7.56473897 13.55792283
Cu 16.68279495 14.94449035 16.15399766
Cu 7.93573127 7.98539208 13.68086080
Cu 15.66744475 3.62530799 14.82266315
Cu 15.14206998 0.15887305 17.31842976
Cu 13.93890843 2.60625729 16.64697029
Cu 8.22822099 4.98225355 12.09442684
Cu 12.07807202 15.36935723 11.90338236
Cu 0.70914553 15.48597457 6.57912150
Cu 0.39038116 11.66783303 3.94827012
Cu 8.91066045 2.77383109 15.41339110
Cu 0.32114003 4.26660138 3.23337219
Cu 5.62726375 9.76275723 7.33879456
Cu 17.99617538 15.74261050 2.22548565
Cu 15.39155774 2.73238590 12.55323181
Cu 4.20444496 3.74729528 15.87694431
Cu 4.73288651 6.79873480 0.85225047
Cu 7.40416163 13.99661592 11.74689017
Cu 16.35885504 2.38859822 8.91502183
Cu 4.46071137 13.20904041 9.44107229
Cu 10.95084701 6.07182944 9.09544916
Cu 13.20216780 6.06945322 8.72373128
Cu 11.44498884 1.74378547 7.34071642
Cu 2.62601384 12.14691682 2.34961023
Cu 1.67252476 4.66646275 12.22134096
Cu 0.81530555 5.31435840 7.77961467
Cu 10.47948429 11.18528225 0.54047875
Cu 12.75913426 13.89881042 16.74965295
Cu 16.79230607 16.98301421 12.84419656
Cu 4.58987782 7.56560964 7.91846372
Cu 2.99944497 6.25495676 12.58537367
Cu 3.95711937 8.57883202 5.74953470
Cu 13.53373414 9.76487071 8.74375142
Cu 14.48592912 14.13611815 6.09525179
Cu 12.30236175 8.23214463 4.89105138
Cu 14.52207634 12.06139042 4.94638846
Cu 2.72492941 0.22144791 4.68814455
Cu 0.95433515 6.60749996 11.02520404
Cu 5.06563573 14.46386958 7.73275671
Cu 4.26548782 13.41517895 13.79100543
Cu 4.76472744 11.82397298 16.53356081
Cu 12.18708413 10.14928512 12.84901158
Cu 10.22127796 14.26866517 13.21259512
Cu 15.82071095 12.82196982 14.40535401
Cu 0.92456477 8.83954506 14.12315624
Cu 6.64798187 1.80460681 3.36547040
Cu 9.72812570 14.44418313 1.75978975
Cu 16.64607708 2.85080968 4.87873346
Cu 14.79223993 14.51433177 0.03887407
Cu 12.73652023 1.06317804 17.78717964
Cu 7.53043988 13.42202155 5.59134119
Cu 14.47613425 12.46880165 16.48944315
Cu 8.71614159 2.73392742 5.18490501
Cu 2.41697131 12.19172699 10.07950051
Cu 15.08166553 14.60373266 3.96637305
Cu 3.25834061 13.29409650 6.55581446
Cu 15.55117780 3.62119940 6.44009577
Cu 6.91902520 8.03782741 7.13465428
Cu 16.56432219 14.02903141 10.44868488
Cu 14.02682625 10.30228710 17.15172785
Cu 4.75504078 10.65336992 2.37583310
Cu 13.87843608 6.43982805 11.34244278
Cu 9.56773097 7.26264466 2.07297534
Cu 16.12130339 0.36632540 10.19376409
Cu 12.17543291 15.57964691 0.69313444
Cu 6.74076016 1.14115160 6.48512202
Cu 14.04787948 9.59780048 11.35141332
Cu 15.44948858 10.75393821 9.12031158
Cu 2.39665704 10.99320209 4.75141447
Cu 15.97473367 5.68735928 5.74241197
Cu 2.01633659 3.06309745 7.78053894
Cu 12.52548183 12.08145806 9.34097735
Cu 11.39050807 0.51552924 3.50383683
Cu 7.39530108 3.91338538 6.91305522
Cu 9.77050022 17.15602606 3.99239509
Cu 12.14286333 1.51189766 9.55557378
Cu 15.44519922 6.69773019 17.41703044
Cu 10.83372087 9.48191151 8.26110567
Cu 1.27738621 16.42770019 4.31066393
Cu 10.37445534 15.54179387 7.98059202
Cu 10.91903993 4.84262970 17.32057171
Cu 15.73720997 4.67620714 0.84566054
Cu 13.92440309 12.35432828 0.39445101
Cu 14.13125015 2.37863583 0.87019524
