500
Final configuration Lattice="17.60000000 0 0  0 17.60000000 0  0 0 17.60000000" Properties=species:S:1:pos:R:3
Ni 16.33267668 16.29056995 2.21323342
Ni 11.17906161 3.43788701 9.50935940
Ni 13.22849465 5.91362634 3.53505573
Ni 16.50497638 8.84139987 3.37821044
Ni 14.56292778 9.31729076 2.08441811
Ni 12.67305684 1.81869794 1.37010892
Ni 0.08428498 3.62194226 7.01377794
Ni 17.20621895 3.58421773 2.28300009
Ni 1.52600698 1.23138613 4.58893189
Ni 11.95481979 14.64162804 4.59594581
Ni 3.93163942 15.02671253 7.21028099
Ni 4.55714030 5.24612887 12.00809500
Ni 2.13878623 2.09663140 7.69430978
Ni 7.31998225 12.36665256 6.96903168
Ni 5.55877115 2.50701519 2.83660799
Ni 15.61994490 9.11989245 6.01212816
Ni 13.42206489 11.04224111 0.76539907
Ni 7.88877464 1.22658588 15.99256235
Ni 5.44860747 1.16583260 6.55017341
Ni 11.78818231 11.39316966 16.63693773
Ni 5.17503600 0.42249221 2.36314455
Ni 13.93649162 7.53149659 6.91952368
Ni 5.53384197 3.01274645 4.99637918
Ni 8.89278899 2.35603441 5.14126067
Ni 0.17913229 15.53337751 10.27829451
Ni 7.39508108 9.41471973 8.87960228
Ni 3.56780292 2.29504407 3.24770549
Ni 11.56299410 11.66524332 1.66531306
Ni 2.57481367 5.51713923 10.46009674
Ni 2.58311176 4.62380127 6.56538177
Ni 11.13704623 11.07483991 9.13615648
Ni 1.11609981 11.61546282 6.87527993
Ni 3.65441186 2.62114360 0.74616297
Ni 13.32977889 5.63138944 16.46313245
Ni 15.29912601 15.06997596 9.74424031
Ni 5.38136848 4.87769311 14.04906052
Ni 11.79770632 2.94096431 15.23615399
Ni 17.51423199 2.98985189 15.94397404
Ni 17.41740816 12.32314339 13.95970838
Ni 3.59494325 5.66724786 15.12443425
Ni 3.45289292 3.76231427 4.83613191
Ni 0.46560696 16.76830917 3.70544574
Ni 12.10364254 15.09326125 2.53916700
Ni 13.68775632 11.70668804 3.15593985
Ni 15.44055113 8.88165539 13.94624336
Ni 6.50676524 9.85263179 12.47899457
Ni 4.93027592 4.66097847 6.30221335
Ni 10.33830094 13.18059640 14.93607070
Ni 9.64577789 6.60232558 5.26820770
Ni 17.48471895 9.87172416 15.24680713
Ni 0.55199175 16.42776084 16.41195976
Ni 0.38330832 14.75247072 2.67109865
Ni 16.52454185 7.34953434 5.33581822
Ni 17.22935474 8.25067143 8.01531587
Ni 6.50569444 6.66012815 14.75244273
Ni 1.46131662 12.01270303 12.63205837
Ni 17.31230154 6.10565733 7.32314175
Ni 15.51398721 2.70540649 5.16760864
Ni 10.93477961 1.48811613 3.38416202
Ni 15.55103062 10.75488020 14.96662811
Ni 15.89120463 14.87737247 13.24440281
Ni 10.66660772 4.04353410 11.51401600
Ni 2.53344394 14.94620793 2.89564408
Ni 2.14718687 17.56639101 6.63311628
Ni 15.57724595 0.88751812 15.66352477
Ni 15.26802790 6.98420443 2.95819343
Ni 10.83795765 8.51991473 5.77651444
Ni 4.71246784 15.02968325 1.43092829
Ni 0.06976893 9.41477729 9.94086255
Ni 0.25588910 2.99822375 9.93106540
Ni 1.05065482 3.98152667 14.32898881
Ni 2.50323341 9.81627113 2.51436537
Ni 2.45480040 16.24046141 4.87410077
Ni 17.54470774 10.03789184 13.08690547
Ni 16.96066808 17.10225735 11.41219191
Ni 15.91490279 10.99440330 3.31679085
Ni 3.39305893 11.87183336 5.73467098
Ni 10.55021584 17.16221515 12.76199198
Ni 11.84284798 9.97215716 11.69987949
Ni 17.06078433 10.93061600 5.51074932
Ni 0.54349984 14.76811799 14.27796889
Ni 0.52719731 4.47948171 11.53486074
Ni 3.09209394 16.21433511 11.42726696
Ni 0.94623320 13.48535294 16.25886904
Ni 3.73706179 9.56181189 5.33483796
Ni 9.39830692 14.84358382 16.81889402
Ni 1.58559762 4.90584935 4.48280874
Ni 1.72566535 7.91488562 10.45128874
Ni 3.27123820 14.21374376 5.17385059
Ni 11.57115548 12.87911907 3.24423668
Ni 1.06955307 15.58924065 12.21051469
Ni 3.02840975 3.82844796 9.21151585
Ni 16.66427723 10.80031703 7.62160364
Ni 6.21498630 8.78982068 14.95837257
Ni 11.70264264 12.32739595 10.87017766
Ni 4.06409508 15.74465422 14.59620523
Ni 2.12729870 11.92600519 15.18466675
Ni 7.01460130 14.87678439 16.29522899
Ni 2.57826132 14.38569687 13.28193722
Ni 14.69227488 11.18179555 5.73283175
Ni 8.69737810 2.55076427 8.58140599
Ni 8.08087746 5.05385897 10.65725753
Ni 2.28115363 11.84330509 10.39158481
Ni 8.19038929 2.78101786 0.38028354
Ni 1.57648370 8.47821118 4.12557936
Ni 5.49945149 9.16129168 10.31241024
Ni 2.62055977 1.76527478 9.80465013
Ni 7.93891275 16.83841774 11.68550896
Ni 9.58492946 7.96566340 16.42239301
Ni 7.73654535 16.03348388 0.52157606
Ni 7.90551168 0.91261195 6.00512928
Ni 6.02690782 9.62911085 4.16427839
Ni 5.74506563 12.78045413 12.91599932
Ni 2.49221121 16.33506666 9.32946466
Ni 17.33947592 2.50769719 13.53138078
Ni 14.76789673 1.02684669 10.70284967
Ni 2.52015689 7.41966095 1.63485953
Ni 5.16502010 7.54220519 16.60074093
Ni 13.15110217 9.68559320 9.79906588
Ni 0.74969213 2.72074479 0.66484879
Ni 0.62866969 0.69008209 8.92295528
Ni 0.53897411 6.75693435 0.17459453
Ni 3.41365273 9.35840036 0.22350193
Ni 2.00428412 9.85824138 13.85307688
Ni 16.21077917 7.91620487 11.65524144
Ni 4.68782241 2.71646079 10.03700424
Ni 10.46501312 1.25705454 9.12766173
Ni 3.81121720 5.91936813 8.20478653
Ni 16.25210711 14.97369662 4.27601560
Ni 10.37457269 9.87714823 2.64181037
Ni 1.19673134 2.30517057 11.87961908
Ni 11.47923511 1.69502116 13.28626733
Ni 16.37832254 7.99088271 16.33486079
Ni 6.98893084 3.19230218 16.21051664
Ni 9.45918116 13.79594278 7.85729879
Ni 6.27590753 16.96982321 5.29753045
Ni 12.67228132 13.58848983 16.34548616
Ni 2.32645891 5.65543084 13.15615052
Ni 4.29541463 13.37348606 11.39927531
Ni 3.19221626 3.45426949 14.19903612
Ni 0.49131181 7.75651961 2.12378119
Ni 14.52290542 13.76687849 17.06892356
Ni 5.64141575 10.74306938 17.12334523
Ni 4.15864834 9.02672275 13.00403341
Ni 14.95007299 5.59542667 6.07920413
Ni 0.13910354 12.37672941 1.27959671
Ni 10.20075227 4.80755929 6.46917002
Ni 8.94042183 0.28014022 2.63468681
Ni 3.19864087 9.63568957 9.89243481
Ni 7.54157879 3.32757481 6.77890056
Ni 8.64383492 3.11134252 11.60064448
Ni 7.82587899 5.48519253 8.12020564
Ni 0.93717902 6.18506775 15.62472067
Ni 3.25789799 13.93801588 9.32063750
Ni 12.77075346 9.47137074 6.17590995
Ni 16.94657161 5.27662954 5.32562901
Ni 3.64656181 11.33901751 13.14163383
Ni 12.39579216 3.83036098 13.02982288
Ni 13.42082031 6.24502383 12.35232024
Ni 3.09930863 16.81561971 16.13433726
Ni 4.12423551 11.23800602 1.37699064
Ni 5.48588323 12.77978147 0.29852889
Ni 4.67331393 8.65581070 1.81742974
Ni 11.54958520 14.84954489 0.30432731
Ni 3.94427805 13.20879471 14.47427412
Ni 12.22744937 8.96785148 13.57766428
Ni 8.11107357 6.02289237 3.90206380
Ni 5.96517957 17.08647782 7.80392852
Ni 0.20193244 10.24240932 2.21132867
Ni 5.14120720 12.33379240 7.27071443
Ni 7.91958230 10.75245235 10.29153873
Ni 4.24306606 11.23452821 3.53099741
Ni 15.68505299 11.11981147 9.60823030
Ni 2.60830248 3.25920585 16.36743762
Ni 3.78001120 0.59337376 7.97728260
Ni 1.63598153 15.34279561 7.42781601
Ni 1.30699741 8.25598677 12.39838759
Ni 2.07014539 1.67446345 14.15124131
Ni 6.86230160 6.42999709 1.08344098
Ni 5.83585599 12.77001831 15.62308203
Ni 14.25054194 16.42960868 3.60554133
Ni 0.73832685 13.45959394 9.10981312
Ni 6.87442935 16.21218823 2.44739047
Ni 4.18352963 0.19173719 10.09063489
Ni 3.17637324 7.35297313 12.05903450
Ni 7.48558783 16.68778100 9.61608492
Ni 5.61513917 17.54420617 15.42254049
Ni 2.37898331 12.43518215 3.16344167
Ni 6.28464819 9.18934840 6.88209075
Ni 6.95235119 12.24671732 2.91326281
Ni 8.84103971 10.15454164 12.41420640
Ni 10.11500576 0.51332740 5.19459442
Ni 1.69759342 6.88852816 8.45848245
Ni 3.02476764 0.84880112 12.02955247
Ni 7.89232061 13.20945210 14.10330609
Ni 2.91831279 7.98631608 6.70895135
Ni 1.42821543 1.03428500 2.22442276
Ni 7.06516889 3.00393832 10.04386130
Ni 3.79726232 12.06226378 16.71656815
Ni 16.54865536 16.89484813 13.65175517
Ni 1.78629937 16.73530093 14.44704232
Ni 3.75304464 1.42672827 15.76478752
Ni 3.21187240 0.03360899 3.37780904
Ni 8.96501682 3.39730360 15.67973395
Ni 5.16199201 7.90138647 5.33616611
Ni 8.10657093 16.44526453 6.83594519
Ni 4.57878981 15.04843376 12.54673335
Ni 6.72941842 1.24446945 12.40893317
Ni 15.56850539 3.01733362 14.72802521
Ni 17.56072392 3.18016669 4.47879210
Ni 12.30624717 7.84660441 11.20844709
Ni 13.46581991 2.83944039 6.53473521
Ni 1.46610920 5.69442414 2.08953102
Ni 0.69504528 4.64483772 17.25870228
Ni 5.31275054 13.21963062 4.83310717
Ni 9.27165275 6.64286195 11.52369142
Ni 5.83498759 14.57706342 14.31792462
Ni 1.58336653 3.59708903 2.81918164
Ni 5.04250671 15.46843558 10.27371743
Ni 9.94245840 2.45612845 1.69884485
Ni 8.88630960 11.70941128 8.35770605
Ni 4.34281759 7.31377085 10.04004545
Ni 14.08849148 7.44477583 4.70952733
Ni 9.08981880 9.22645123 4.75451405
Ni 11.05660686 3.18174827 4.93404999
Ni 12.01961636 1.14844996 6.06126552
Ni 10.95260897 16.78690563 16.69628902
Ni 3.87572529 7.47954848 3.66108610
Ni 10.09713420 16.68623552 10.56418429
Ni 7.94881572 9.60617330 16.36857169
Ni 14.12327847 2.48098479 12.78305831
Ni 9.35017076 4.12874401 3.81533347
Ni 8.07739538 14.37235010 9.63577438
Ni 3.94058484 11.73605744 8.85373961
Ni 4.28341808 16.93930160 5.91560332
Ni 0.12929179 0.75142801 15.13790659
Ni 11.69968801 13.20201044 8.50125983
Ni 2.65600648 14.57988130 15.70170508
Ni 8.34999434 8.39596423 13.47534525
Ni 13.35597395 7.11432567 9.19373670
Ni 8.74702699 0.75964537 10.24186432
Ni 6.03172649 5.50475730 16.50930122
Ni 7.50469542 11.05558828 14.09351195
Ni 7.51695507 4.77546322 14.77520047
Ni 9.60267361 11.55064671 4.47728035
Ni 12.22877834 0.27986375 9.67390464
Ni 5.41521270 6.76144372 7.10097129
Ni 4.97825850 5.16532965 10.06008033
Ni 4.50661171 6.59713103 1.08344748
Ni 0.12424768 6.54220597 12.13084523
Ni 11.52963742 16.78343759 7.93457174
Ni 11.25443877 5.97001714 12.55562091
Ni 6.35822695 0.96262125 10.24842067
Ni 4.59694194 14.56940481 16.75105938
Ni 10.36478256 9.26953088 10.05703209
Ni 15.50519947 13.12367709 1.85980562
Ni 10.44285979 12.80812533 0.10904062
Ni 0.10675737 16.53871141 6.10165265
Ni 7.79193427 15.26239564 13.33688426
Ni 4.78426416 3.68723865 16.48585327
Ni 1.52280136 10.93433721 17.02465415
Ni 8.18398023 12.98559921 16.33165399
Ni 13.14187015 14.03184851 11.18946266
Ni 14.09999954 7.99851298 17.24482000
Ni 2.47165530 12.93301779 1.10896242
Ni 3.32718077 6.15446684 5.44166124
Ni 13.21577316 4.81910196 6.91251353
Ni 14.49942005 2.50250999 9.08633192
Ni 5.98280978 4.14720266 8.42295095
Ni 6.66282728 7.29557584 9.25055676
Ni 7.80402785 11.35412840 0.31525690
Ni 9.71186659 12.27825273 12.88866995
Ni 5.35758189 5.95229020 4.63599935
Ni 1.67236039 0.98775817 17.22822479
Ni 7.73242880 8.74740766 10.98016688
Ni 7.68503109 2.63467716 13.87837147
Ni 3.62393674 9.62637120 15.47746962
Ni 10.32163840 2.37907254 17.24978215
Ni 11.33799208 9.41337140 15.88055733
Ni 9.39430149 9.49666103 14.88402789
Ni 5.24128575 10.68509698 14.42883021
Ni 8.36328437 16.29902666 4.54042033
Ni 4.70148739 6.94126228 13.52929728
Ni 7.33945894 6.20069497 12.93685531
Ni 5.87069322 10.77140776 8.35115453
Ni 10.59968144 13.11097192 5.96236583
Ni 10.17055928 5.74491069 2.52008421
Ni 4.17968683 13.30339498 2.68261767
Ni 9.94688241 0.20690433 7.23032135
Ni 2.76852283 3.90904304 11.50159828
Ni 4.49282178 8.83724861 8.25953159
Ni 11.00217327 7.14101609 9.67893859
Ni 6.23671427 14.63176015 8.56028678
Ni 9.72328918 11.78395713 10.40299434
Ni 1.07152085 13.83687675 5.82847967
Ni 5.86864882 14.86532970 6.33503980
Ni 8.86483056 6.81433756 14.78435250
Ni 7.14351342 0.85050722 3.91916604
Ni 14.36123237 3.39843979 1.78377176
Ni 4.53378425 2.54898185 12.26182942
Ni 8.03057479 10.20111664 3.19669744
Ni 8.94992877 1.07286193 13.09866202
Ni 5.61948950 17.02383350 11.93876526
Ni 15.07750522 5.98833435 10.96567783
Ni 12.70982956 16.60977784 5.18307537
Ni 12.22003069 6.64804270 5.97072106
Ni 10.19440888 5.35003607 15.93670731
Ni 6.82187422 14.41902747 11.42208395
Ni 7.03680702 4.08549779 3.84236812
Ni 1.09761874 4.70557004 8.77143680
Ni 13.36366040 0.10239509 12.70786279
Ni 11.95292366 17.18964021 14.43349497
Ni 10.17174145 8.46928480 12.47073741
Ni 9.83191773 3.11922119 13.76800652
Ni 13.77005092 9.74880498 4.28275502
Ni 1.41204773 17.32933812 10.71539704
Ni 13.78910495 14.10291367 3.48356135
Ni 10.23080999 1.77139000 11.47243355
Ni 2.86986367 6.74183880 16.86547061
Ni 16.88700342 1.12848084 17.55492879
Ni 3.09371073 17.21266712 0.82570662
Ni 10.01859027 15.48597925 14.40978472
Ni 6.02817805 10.99252408 5.60982615
Ni 8.14391393 4.92888285 16.82108200
Ni 3.43830963 10.28794964 7.28893397
Ni 9.81301526 10.65116683 0.30511932
Ni 8.84393803 7.27634664 9.39081591
Ni 15.73607698 10.47909763 0.44846901
Ni 4.25900245 2.99502675 7.54904913
Ni 8.02129723 14.40248847 6.15963996
Ni 0.93831926 0.21612634 12.82068140
Ni 15.17364167 3.70689772 7.33261565
Ni 15.68721422 4.36245728 12.69446110
Ni 16.13064023 12.99270228 8.32332423
Ni 7.09620979 14.21759542 3.80162402
Ni 10.04179870 6.89419974 7.61423082
Ni 2.15098161 15.44288991 0.40363237
Ni 13.47164996 1.29375072 14.65474179
Ni 15.48977136 6.02237626 16.96695756
Ni 16.86144017 1.01134291 2.30207045
Ni 10.52386500 16.60829337 3.76310169
Ni 12.26204341 5.49562169 1.25190567
Ni 13.72112127 12.36165551 15.03623057
Ni 9.82566995 13.63749120 2.02952925
Ni 10.86997352 11.05172148 14.16843848
Ni 12.65982196 12.58211856 5.22236812
Ni 11.46100179 8.69682908 7.92853707
Ni 16.87055624 11.58408641 16.54802470
Ni 13.88991584 13.22115111 9.21620913
Ni 16.89696511 15.47173605 7.79127331
Ni 13.48218798 4.58347776 9.08791503
Ni 10.61311184 8.04850013 1.18199347
Ni 13.80291790 11.51314958 11.12432887
Ni 7.47979110 7.28224546 16.62717479
Ni 9.75420203 5.27168382 9.27406073
Ni 14.27856283 15.26546234 5.27959237
Ni 6.31265039 8.74003839 0.57961314
Ni 10.90080984 17.26215940 1.39626761
Ni 11.51761032 15.04385650 12.36842693
Ni 14.11260442 4.88652415 14.53645709
Ni 7.07567828 5.18465720 5.71649480
Ni 17.02211835 14.52992878 0.24080836
Ni 13.03138711 2.28862650 3.80161907
Ni 9.36896093 11.32989477 15.98849475
Ni 11.82043552 15.06668492 15.11523138
Ni 11.83464949 5.19343135 14.42522499
Ni 10.91849231 7.64678633 14.45801340
Ni 11.20459664 10.90811787 6.90203829
Ni 14.01969292 16.95114191 9.48212476
Ni 1.86441780 10.79383896 4.51833660
Ni 6.15396492 2.02872499 8.15991444
Ni 11.54454058 10.43227981 4.52705264
Ni 5.85505685 6.81392796 11.31793788
Ni 8.27823567 16.71307698 15.85382028
Ni 11.51283689 4.99518395 8.23130168
Ni 15.55019577 6.52294126 13.72518399
Ni 12.33339441 5.48830421 10.55423701
Ni 9.08062479 0.28149890 17.50649621
Ni 8.82452453 7.96716376 3.04885071
Ni 15.48566553 13.27026283 10.94699812
Ni 16.03672451 16.86589724 17.57179375
Ni 6.04357026 10.61051912 1.92423581
Ni 14.42078480 9.23172509 7.97404589
Ni 8.14755076 2.59800469 2.84736874
Ni 7.93657404 7.66232746 7.51846638
Ni 12.36632271 14.88278201 6.88035353
Ni 5.70664473 5.20786226 2.48180490
Ni 8.98663213 15.51704504 2.15794968
Ni 13.16432032 13.21916728 1.12062159
Ni 7.40534218 7.44307902 5.60614690
Ni 12.53518903 15.29046994 9.22649593
Ni 7.20066422 0.49252902 1.16321381
Ni 10.43661771 15.64925254 5.75594254
Ni 9.05184406 14.64340459 11.72799027
Ni 16.50914277 13.19240777 6.36697383
Ni 14.20820279 0.70009216 7.30543938
Ni 15.57464864 0.84859603 12.74017299
Ni 6.26059794 7.44079219 3.32776635
Ni 6.25846001 3.40214364 1.05022128
Ni 14.70308543 15.90916271 11.81268129
Ni 14.17001243 15.59120921 7.77088968
Ni 14.75658587 2.00504955 0.13370789
Ni 0.57382879 17.16499328 0.91334094
Ni 1.47052710 8.61631192 16.30247322
Ni 16.48821407 2.09461648 8.40784564
Ni 9.45963100 16.00866526 8.66159203
Ni 14.13009934 0.73614117 4.86853916
Ni 3.38490263 4.82180069 2.58074250
Ni 15.89180084 13.34579346 15.09885084
Ni 13.48224296 7.29027097 14.50171516
Ni 15.58231588 16.78218667 6.28875208
Ni 16.28383781 1.19878908 6.30402422
Ni 4.36098943 0.42318616 13.68498379
Ni 12.53595352 16.39413084 11.22895186
Ni 0.92554055 11.22156997 8.86160495
Ni 17.43054920 13.69555487 12.16787363
Ni 16.15360406 15.51804926 15.86408123
Ni 13.33808025 16.96334201 16.18676779
Ni 16.71071272 5.92780165 1.63724140
Ni 1.74031816 9.03906921 8.32121464
Ni 9.12157449 5.04265688 13.35067040
Ni 8.92912599 6.48936308 0.78908456
Ni 16.62206921 4.83584979 15.09689563
Ni 11.95248446 9.62882682 0.38471298
Ni 11.29256852 3.81563199 2.60226649
Ni 11.24701056 5.25983283 4.51007919
Ni 7.73041524 12.29410935 4.88463634
Ni 16.29365748 17.07844054 9.08127085
Ni 17.53099107 6.09271119 3.51934614
Ni 5.16500589 2.47172490 14.39581699
Ni 2.84074531 13.14607879 7.45229794
Ni 1.00710404 6.71844200 5.74718036
Ni 14.46176677 3.74496118 11.11204050
Ni 14.51381618 16.83551381 14.38744264
Ni 0.03927608 7.68383954 14.09342431
Ni 10.29477357 14.29927285 9.90440177
Ni 12.05249192 7.52603188 16.68004560
Ni 13.32014059 10.70683452 13.38957140
Ni 16.07433550 8.01381987 1.26553832
Ni 15.63454106 10.71553802 12.85263459
Ni 16.41695663 0.21453340 4.44937546
Ni 8.03075289 0.54931788 8.20551938
Ni 14.57773381 12.60869544 13.02718933
Ni 7.91536235 4.72904075 2.00538046
Ni 17.46352347 9.41805563 17.57844148
Ni 15.33432119 12.90193641 4.49965848
Ni 14.10398643 3.60114778 16.37668002
Ni 7.69403029 12.45750244 12.04394173
Ni 13.84530431 10.13902123 16.57837409
Ni 7.99676839 10.30607383 6.41886447
Ni 14.31494816 13.25842521 6.51326295
Ni 13.03022703 17.20432236 0.69273528
Ni 14.05885016 8.53529173 12.20763884
Ni 16.10293939 4.51358111 9.19348690
Ni 4.63740136 10.96603636 11.17776658
Ni 16.35210284 2.43518069 11.30177066
Ni 15.68771439 8.92053503 9.69280965
Ni 2.44650787 7.58122228 14.67763922
Ni 15.43647878 4.46155047 3.21492548
Ni 1.75572824 13.95248030 11.16174139
Ni 9.53602882 9.68186125 7.64757176
Ni 17.54261465 12.66998773 3.62686627
Ni 10.00157347 4.47628090 0.59886666
Ni 14.89082680 0.19721164 1.72683510
Ni 12.27426534 3.65087892 0.02155852
Ni 9.69420994 14.19943357 4.20298405
Ni 15.43370499 6.74815374 8.69481981
Ni 13.54121695 4.24929769 4.64951327
Ni 9.06303075 11.70549513 2.21431631
Ni 17.08071420 6.32082353 10.05547121
Ni 12.31025979 2.03147200 8.16965513
Ni 8.49840105 9.23144608 1.20279061
Ni 15.98024529 4.10591078 0.53924633
Ni 14.03414222 15.43045692 1.34727239
Ni 12.51976064 9.69310216 2.54946597
Ni 3.40636738 1.59594245 5.89783706
Ni 13.53979363 11.15961301 7.97520171
Ni 13.62115962 14.48934733 13.59381647
Ni 12.62181687 0.16028659 2.98037755
Ni 1.86210082 10.21849383 11.65147821
Ni 5.48298464 1.50865757 17.19421922
Ni 10.22920590 2.44973325 6.94062668
Ni 13.19833556 7.41382916 1.51349758
Ni 10.01825950 1.08621389 15.03081640
Ni 12.39199888 1.50383208 16.86320999
Ni 6.86803144 3.98366051 12.42959269
Ni 7.54536124 13.73651230 1.29416406
Ni 7.17196464 17.21040348 13.98717930
Ni 12.02699234 12.81181552 13.26761488
Ni 17.15882673 11.61358143 11.16780599
Ni 6.21406287 12.47844021 9.65666190
Ni 11.19471558 7.32931669 3.46329900
Ni 4.71964320 15.44347332 3.95184870
Ni 15.08652748 1.73028153 3.23349578
Ni 12.70393911 1.87608764 11.21420818
Ni 0.69255962 9.02704574 6.11055882
Ni 5.18289962 1.02806859 4.38161104
Ni 5.31439666 16.72807313 0.22937474
Ni 14.34433017 5.54399973 1.44084909
Ni 3.17976137 4.76818960 0.34871717
